     Program PWSCF v.6.7MaX starts on 20Dec2022 at 15:43:17

     Reading input from c-ensemble.in
Warning: card &CELL ignored
Warning: card / ignored

     Current dimensions of program PWSCF are:
     Max number of different atomic species (ntypx) = 10
     Max number of k-points (npk) =  40000
     Max angular momentum in pseudopotentials (lmaxx) =  3
     file Pt.pbe-n-kjpaw_psl.1.0.0.UPF: wavefunction(s)  6S 5D renormalized
     file C.pbe-n-kjpaw_psl.1.0.0.UPF: wavefunction(s)  2S 2P renormalized

     IMPORTANT: XC functional enforced from input :
     Exchange-correlation= BEEF-VDW
                           (   1   4  43  14   2   0   0)
     Any further DFT definition will be discarded
     Please, verify this is what you really want

     Subspace diagonalization in iterative solution of the eigenvalue problem:
     a serial algorithm will be used

     bravais-lattice index     =            0
     lattice parameter (alat)  =      16.0349  a.u.
     unit-cell volume          =   10405.9029 (a.u.)^3
     number of atoms/cell      =           37
     number of atomic types    =            2
     number of electrons       =       364.00
     number of Kohn-Sham states=          218
     kinetic-energy cutoff     =      60.0000  Ry
     charge density cutoff     =     240.0000  Ry
     scf convergence threshold =      1.0E-06
     mixing beta               =       0.7000
     number of iterations used =            8  local-TF  mixing
     Exchange-correlation= BEEF-VDW
                           (   1   4  43  14   2   0   0)

     celldm(1)=  16.034858  celldm(2)=   0.000000  celldm(3)=   0.000000
     celldm(4)=   0.000000  celldm(5)=   0.000000  celldm(6)=   0.000000

     crystal axes: (cart. coord. in units of alat)
               a(1) = (   1.000000   0.000000   0.000000 )
               a(2) = (   0.500000   0.866025   0.000000 )
               a(3) = (   0.000000   0.000000   2.914431 )

     reciprocal axes: (cart. coord. in units 2 pi/alat)
               b(1) = (  1.000000 -0.577350  0.000000 )
               b(2) = (  0.000000  1.154701  0.000000 )
               b(3) = (  0.000000  0.000000  0.343120 )

     PseudoPot. # 1 for Pt read from file:
     /users/bkreitz1/quantum-espresso/potentials/Pt.pbe-n-kjpaw_psl.1.0.0.UPF
     MD5 check sum: 04dc8a03c51ece93fc7b5889c2958091
     Pseudo is Projector augmented-wave + core cor, Zval = 10.0
     Generated using 'atomic' code by A. Dal Corso  v.6.7MaX
     Shape of augmentation charge: PSQ
     Using radial grid of 1277 points,  6 beta functions with:
                l(1) =   0
                l(2) =   0
                l(3) =   1
                l(4) =   1
                l(5) =   2
                l(6) =   2
     Q(r) pseudized with 0 coefficients

     PseudoPot. # 2 for C  read from file:
     /users/bkreitz1/quantum-espresso/potentials/C.pbe-n-kjpaw_psl.1.0.0.UPF
     MD5 check sum: a169b0ebad56f5ec0d79c4633f80bf22
     Pseudo is Projector augmented-wave + core cor, Zval =  4.0
     Generated using 'atomic' code by A. Dal Corso  v.6.7MaX
     Shape of augmentation charge: PSQ
     Using radial grid of 1073 points,  4 beta functions with:
                l(1) =   0
                l(2) =   0
                l(3) =   1
                l(4) =   1
     Q(r) pseudized with 0 coefficients

     atomic species   valence    mass     pseudopotential
        Pt            10.00   195.08400     Pt( 1.00)
        C              4.00    12.01100     C ( 1.00)

     No symmetry found

   Cartesian axes

     site n.     atom                  positions (alat units)
         1           Pt  tau(   1) = (   0.0000000   0.0000000   1.0017346  )
         2           Pt  tau(   2) = (   0.3333333   0.0000000   1.0017346  )
         3           Pt  tau(   3) = (   0.6666667   0.0000000   1.0017346  )
         4           Pt  tau(   4) = (   0.1666667   0.2886751   1.0017346  )
         5           Pt  tau(   5) = (   0.5000000   0.2886751   1.0017346  )
         6           Pt  tau(   6) = (   0.8333333   0.2886751   1.0017346  )
         7           Pt  tau(   7) = (   0.3333333   0.5773503   1.0017346  )
         8           Pt  tau(   8) = (   0.6666667   0.5773503   1.0017346  )
         9           Pt  tau(   9) = (   1.0000000   0.5773503   1.0017346  )
        10           Pt  tau(  10) = (   0.1666667   0.0962250   1.2739001  )
        11           Pt  tau(  11) = (   0.5000000   0.0962250   1.2739001  )
        12           Pt  tau(  12) = (   0.8333333   0.0962250   1.2739001  )
        13           Pt  tau(  13) = (   0.3333333   0.3849002   1.2739001  )
        14           Pt  tau(  14) = (   0.6666667   0.3849002   1.2739001  )
        15           Pt  tau(  15) = (   1.0000000   0.3849002   1.2739001  )
        16           Pt  tau(  16) = (   0.5000000   0.6735753   1.2739001  )
        17           Pt  tau(  17) = (   0.8333333   0.6735753   1.2739001  )
        18           Pt  tau(  18) = (   1.1666667   0.6735753   1.2739001  )
        19           Pt  tau(  19) = (  -0.0000685   0.1923876   1.5414590  )
        20           Pt  tau(  20) = (   0.3344847   0.1918140   1.5465189  )
        21           Pt  tau(  21) = (   0.6653817   0.1918045   1.5464523  )
        22           Pt  tau(  22) = (   0.1667154   0.4812683   1.5414473  )
        23           Pt  tau(  23) = (   0.4999575   0.4791298   1.5452434  )
        24           Pt  tau(  24) = (   0.8331420   0.4812677   1.5414064  )
        25           Pt  tau(  25) = (   0.3315431   0.7708580   1.5452648  )
        26           Pt  tau(  26) = (   0.6683913   0.7708674   1.5452486  )
        27           Pt  tau(  27) = (   0.9999432   0.7712851   1.5464319  )
        28           Pt  tau(  28) = (  -0.0001033   0.0008282   1.8164812  )
        29           Pt  tau(  29) = (   0.3206001  -0.0071861   1.8340943  )
        30           Pt  tau(  30) = (   0.6791561  -0.0071533   1.8340432  )
        31           Pt  tau(  31) = (   0.1632183   0.2907482   1.8151750  )
        32           Pt  tau(  32) = (   0.4999047   0.3034305   1.8341074  )
        33           Pt  tau(  33) = (   0.8365277   0.2907625   1.8151323  )
        34           Pt  tau(  34) = (   0.3326180   0.5771277   1.8164691  )
        35           Pt  tau(  35) = (   0.6671542   0.5771372   1.8164488  )
        36           Pt  tau(  36) = (   0.9998566   0.5736454   1.8151223  )
        37           C   tau(  37) = (   0.4998783   0.0963894   1.9225057  )

     number of k points=    13  Marzari-Vanderbilt smearing, width (Ry)=  0.0200
                       cart. coord. in units 2pi/alat
        k(    1) = (   0.0000000   0.0000000   0.0000000), wk =   0.0800000
        k(    2) = (   0.0000000   0.2309401   0.0000000), wk =   0.1600000
        k(    3) = (   0.0000000   0.4618802   0.0000000), wk =   0.1600000
        k(    4) = (   0.2000000  -0.1154701   0.0000000), wk =   0.1600000
        k(    5) = (   0.2000000   0.1154701   0.0000000), wk =   0.1600000
        k(    6) = (   0.2000000   0.3464102   0.0000000), wk =   0.1600000
        k(    7) = (   0.2000000  -0.5773503   0.0000000), wk =   0.1600000
        k(    8) = (   0.2000000  -0.3464102   0.0000000), wk =   0.1600000
        k(    9) = (   0.4000000  -0.2309401   0.0000000), wk =   0.1600000
        k(   10) = (   0.4000000  -0.0000000   0.0000000), wk =   0.1600000
        k(   11) = (   0.4000000   0.2309401   0.0000000), wk =   0.1600000
        k(   12) = (   0.4000000  -0.6928203   0.0000000), wk =   0.1600000
        k(   13) = (   0.4000000  -0.4618802   0.0000000), wk =   0.1600000

     Initial potential from superposition of free atoms

     starting charge  363.99385, renormalised to  364.00000

     negative rho (up, down):  1.093E-02 0.000E+00

     %%%%%%%%%%%%%%%%%%%%%%%%%%%%%%%%%%%%%%%%%%%%%%%%%%%%%%%%%%%%%%%%%%%%%%%%
     %                                                                      %
     % You are using vdW-DF, which was implemented by the Thonhauser group. %
     % Please cite the following two papers that made this development      %
     % possible and the two reviews that describe the various versions:     %
     %                                                                      %
     %   T. Thonhauser et al., PRL 115, 136402 (2015).                      %
     %   T. Thonhauser et al., PRB 76, 125112 (2007).                       %
     %   K. Berland et al., Rep. Prog. Phys. 78, 066501 (2015).             %
     %   D.C. Langreth et al., J. Phys.: Condens. Matter 21, 084203 (2009). %
     %                                                                      %
     %                                                                      %
     % If you are calculating the stress with vdW-DF, please also cite:     %
     %                                                                      %
     %   R. Sabatini et al., J. Phys.: Condens. Matter 24, 424209 (2012).   %
     %                                                                      %
     %%%%%%%%%%%%%%%%%%%%%%%%%%%%%%%%%%%%%%%%%%%%%%%%%%%%%%%%%%%%%%%%%%%%%%%%

     Starting wfcs are  328 randomized atomic wfcs
     Checking if some PAW data can be deallocated...

     Self-consistent Calculation

     iteration #  1     ecut=    60.00 Ry     beta= 0.70
     Davidson diagonalization with overlap
     ethr =  1.00E-02,  avg # of iterations =  2.0

     Threshold (ethr) on eigenvalues was too large:
     Diagonalizing with lowered threshold

     Davidson diagonalization with overlap
     ethr =  5.03E-04,  avg # of iterations =  3.8

[...]

     total energy              =  -27772.87646801 Ry
     estimated scf accuracy    <       2.09936119 Ry

[...]

     iteration #  7     ecut=    60.00 Ry     beta= 0.70
     Davidson diagonalization with overlap
     c_bands:  1 eigenvalues not converged
     c_bands:  2 eigenvalues not converged
     c_bands:  1 eigenvalues not converged
     c_bands:  2 eigenvalues not converged
     c_bands:  2 eigenvalues not converged
     c_bands:  2 eigenvalues not converged
     c_bands:  1 eigenvalues not converged
     c_bands:  2 eigenvalues not converged
     c_bands:  1 eigenvalues not converged
     c_bands:  2 eigenvalues not converged
     c_bands:  1 eigenvalues not converged
     c_bands:  1 eigenvalues not converged
     c_bands:  1 eigenvalues not converged
     ethr =  1.43E-06,  avg # of iterations = 20.0

[...]

     iteration #  8     ecut=    60.00 Ry     beta= 0.70
     Davidson diagonalization with overlap
     c_bands:  1 eigenvalues not converged
     c_bands:  1 eigenvalues not converged
     c_bands:  1 eigenvalues not converged
     ethr =  5.13E-07,  avg # of iterations = 10.4

[...]

     total energy              =  -27773.21317572 Ry
     estimated scf accuracy    <       0.00000167 Ry

     iteration # 16     ecut=    60.00 Ry     beta= 0.70
     Davidson diagonalization with overlap
     ethr =  4.59E-10,  avg # of iterations =  3.9

[...]

     End of self-consistent calculation

          k = 0.0000 0.0000 0.0000 ( 81703 PWs)   bands (ev):

    -9.8504  -6.4479  -5.1349  -4.4179  -4.4176  -4.1107  -4.0826  -4.0534
    -4.0528  -4.0422  -3.9746  -3.9222  -3.9218  -3.5311  -3.5247  -3.5245
    -3.4749  -3.4435  -3.4434  -3.0899  -3.0897  -3.0774  -3.0487  -2.9015
    -2.9010  -2.8673  -2.8546  -2.8545  -2.7696  -2.7695  -2.7632  -2.6985
    -2.6628  -2.6626  -2.6004  -2.5893  -2.5751  -2.5746  -2.5251  -2.5249
    -2.5207  -2.1594  -2.1591  -2.1589  -2.0415  -1.9977  -1.9976  -1.9722
    -1.9722  -1.9283  -1.8457  -1.8162  -1.8162  -1.7461  -1.7461  -1.6605
    -1.6604  -1.5132  -1.2980  -1.2974  -1.1980  -1.1979  -1.1691  -1.1298
    -1.0606  -1.0604  -1.0540  -0.9966  -0.9831  -0.9830  -0.9808  -0.9499
    -0.9499  -0.9488  -0.9130  -0.9127  -0.8909  -0.8678  -0.8675  -0.8269
    -0.8074  -0.8068  -0.7669  -0.7662  -0.7638  -0.6158  -0.6156  -0.6034
    -0.5885  -0.5728  -0.5727  -0.5265  -0.5258  -0.4788  -0.4775  -0.4614
    -0.4614  -0.3428  -0.3428  -0.2988  -0.2958  -0.2822  -0.2821  -0.2108
    -0.1924  -0.1919  -0.1438  -0.0994  -0.0990  -0.0672   0.2115   0.2116
     0.2663   0.3179   0.3180   0.3573   0.3574   0.3717   0.3771   0.4937
     0.5011   0.5012   0.5563   0.5564   0.5610   0.5851   0.5851   0.6000
     0.6848   0.8158   0.8160   0.8459   0.8476   0.9068   0.9069   0.9742
     1.0733   1.0734   1.0934   1.0936   1.1038   1.1150   1.1479   1.1573
     1.1576   1.2649   1.2650   1.3285   1.3676   1.3678   1.3836   1.4666
     1.4666   1.5329   1.5331   1.5465   1.5521   1.5522   1.5540   1.5746
     1.5856   1.5856   1.6467   1.6467   1.6725   1.6725   1.6767   1.7188
     1.7520   1.7520   1.7656   1.7705   1.7706   1.8306   1.8307   1.8606
     1.9075   1.9075   1.9109   1.9298   1.9302   1.9601   1.9947   1.9948
     2.0275   2.0277   2.0591   2.0631   2.2024   2.2030   2.3097   2.3233
     2.3237   2.3614   2.3616   2.3802   2.6023   2.9971   2.9972   3.0844
     3.2322   3.2327   3.2719   4.2209   4.4945   4.4948   5.4011   5.5524
     5.5530   5.6980   5.9401   5.9404   7.1338   7.1767   7.1771   7.1794
     7.2391   7.3915

[...]

          k = 0.4000-0.4619 0.0000 ( 81692 PWs)   bands (ev):

    -9.8239  -5.5623  -5.4776  -4.9432  -4.5284  -4.2612  -4.0689  -3.9663
    -3.7340  -3.6495  -3.6170  -3.5277  -3.4654  -3.4445  -3.3844  -3.3471
    -3.2492  -3.2398  -3.2133  -3.2007  -3.1760  -3.1519  -3.0981  -3.0310
    -3.0218  -3.0166  -2.9960  -2.9605  -2.9109  -2.8263  -2.7569  -2.7481
    -2.7188  -2.6806  -2.6161  -2.5715  -2.5416  -2.5132  -2.4054  -2.4021
    -2.3661  -2.2290  -2.1956  -2.1777  -2.1009  -2.0921  -2.0559  -2.0083
    -1.9018  -1.8838  -1.8545  -1.7987  -1.7741  -1.7481  -1.7147  -1.6924
    -1.6858  -1.6362  -1.6188  -1.5862  -1.5316  -1.5248  -1.5010  -1.4628
    -1.4259  -1.3948  -1.3628  -1.2981  -1.2823  -1.2019  -1.1847  -1.1502
    -1.1114  -1.1061  -1.0971  -1.0563  -1.0329  -0.9616  -0.9529  -0.9159
    -0.8947  -0.8697  -0.8519  -0.8059  -0.7675  -0.7295  -0.7241  -0.7030
    -0.6358  -0.6027  -0.5651  -0.5378  -0.5200  -0.5094  -0.4759  -0.4405
    -0.4384  -0.4180  -0.4043  -0.3710  -0.3521  -0.3303  -0.3105  -0.2795
    -0.2752  -0.2565  -0.2487  -0.2183  -0.1943  -0.1699  -0.1659  -0.0502
     0.0089   0.0478   0.0881   0.1617   0.1971   0.2323   0.2634   0.2871
     0.3078   0.3246   0.3441   0.3784   0.3984   0.4182   0.4550   0.4888
     0.5685   0.5989   0.6031   0.6369   0.6780   0.7628   0.7964   0.8231
     0.9032   0.9366   0.9380   0.9534   0.9909   1.0223   1.0371   1.0409
     1.0758   1.1380   1.1412   1.1582   1.1880   1.2425   1.2553   1.3060
     1.3219   1.3929   1.4340   1.4828   1.5299   1.6087   1.6343   1.6953
     1.7029   1.7365   1.7960   1.8562   1.8865   1.8993   1.9330   1.9560
     2.0281   2.0359   2.0744   2.0918   2.1151   2.1501   2.1946   2.2014
     2.2144   2.2344   2.2430   2.2885   2.3058   2.3574   2.3948   2.4449
     2.4790   2.5196   2.5248   2.5627   2.5791   2.6142   2.7544   2.9733
     3.2102   3.5407   3.6659   3.7152   3.8935   3.9476   3.9694   4.1378
     4.2739   4.5066   4.5571   4.7482   4.8132   4.8445   5.1348   5.1998
     5.3951   5.4858   5.5622   5.5902   5.8108   5.9058   6.0877   6.1907
     6.4705   6.7474

     the Fermi energy is     2.2998 ev

!    total energy              =  -27773.21317456 Ry

     total all-electron energy =  -1326717.742693 Ry
     estimated scf accuracy    <       0.00000061 Ry
     smearing contrib. (-TS)   =       0.00370803 Ry
     internal energy E=F+TS    =  -27773.21688259 Ry

     The total energy is F=E-TS. E is the sum of the following terms:
     one-electron contribution =  -22383.70618082 Ry
     hartree contribution      =   11496.99471432 Ry
     xc contribution           =    -894.80210850 Ry
     ewald contribution        =    9488.88387310 Ry
     one-center paw contrib.   =  -25480.58718070 Ry

     convergence has been achieved in  16 iterations

[...]

     Forces acting on atoms (cartesian axes, Ry/au):

     atom    1 type  1   force =     0.00003737   -0.00020722   -0.00420678
     atom    2 type  1   force =    -0.00025282   -0.00019056   -0.00333165
     atom    3 type  1   force =     0.00024941   -0.00016256   -0.00336239
     atom    4 type  1   force =     0.00006169   -0.00002493   -0.00402217
     atom    5 type  1   force =     0.00002797    0.00031597   -0.00330821
     atom    6 type  1   force =    -0.00005921    0.00002665   -0.00400610
     atom    7 type  1   force =     0.00018604    0.00003577   -0.00419705
     atom    8 type  1   force =    -0.00012580    0.00003887   -0.00415774
     atom    9 type  1   force =    -0.00003290    0.00000713   -0.00401860
     atom   10 type  1   force =     0.00057210   -0.00208791    0.00362352
     atom   11 type  1   force =    -0.00006342    0.00004718    0.01207013
     atom   12 type  1   force =    -0.00058150   -0.00205046    0.00359413
     atom   13 type  1   force =     0.00211093    0.00056637    0.00360809
     atom   14 type  1   force =    -0.00211506    0.00061204    0.00353233
     atom   15 type  1   force =    -0.00006190    0.00004950    0.00007909
     atom   16 type  1   force =     0.00004849   -0.00006206   -0.00012393
     atom   17 type  1   force =    -0.00157245    0.00150618    0.00353546
     atom   18 type  1   force =     0.00150052    0.00151747    0.00357567
     atom   19 type  1   force =     0.00003652    0.00022870    0.00029645
     atom   20 type  1   force =    -0.00002002    0.00001283    0.00021286
     atom   21 type  1   force =     0.00007139    0.00005380    0.00029530
     atom   22 type  1   force =    -0.00019025   -0.00017104    0.00030936
     atom   23 type  1   force =    -0.00001274   -0.00025171    0.00054104
     atom   24 type  1   force =     0.00024698   -0.00016031    0.00034264
     atom   25 type  1   force =    -0.00028492    0.00015079    0.00049295
     atom   26 type  1   force =     0.00022011    0.00013632    0.00052399
     atom   27 type  1   force =    -0.00000963   -0.00011926    0.00031926
     atom   28 type  1   force =    -0.00002017   -0.00033613    0.00061328
     atom   29 type  1   force =     0.00191358    0.00114846    0.00100319
     atom   30 type  1   force =    -0.00187255    0.00107948    0.00100317
     atom   31 type  1   force =     0.00003709   -0.00004723   -0.00042799
     atom   32 type  1   force =    -0.00003747   -0.00226276    0.00099166
     atom   33 type  1   force =     0.00000144   -0.00007199   -0.00042578
     atom   34 type  1   force =     0.00026984    0.00018784    0.00061272
     atom   35 type  1   force =    -0.00027614    0.00017210    0.00060711
     atom   36 type  1   force =     0.00004667    0.00002520   -0.00045495
     atom   37 type  2   force =    -0.00004918    0.00028748   -0.00574004

     Total force =     0.007392     Total SCF correction =     0.001560
     SCF correction compared to forces is large: reduce conv_thr to get better values

[...]

     negative rho (up, down):  1.154E-02 0.000E+00

     negative rho (up, down):  1.154E-02 0.000E+00
 BEEFens 2000 ensemble energies
             -0.597835630147581E+02
             -0.357337871469213E+01
             -0.156578927890563E+02
              0.423319056656666E+02
             -0.218318753977307E+02
             -0.203204756671927E+02
             -0.345749275576067E+02
             -0.851661965933894E+02
             -0.460702827647823E+02
             -0.468153071303304E+02
             -0.364145924929570E+02
              0.216150740358457E+01
              0.400744779241228E+01
              0.770972916885765E+01
              0.260611746417945E+01
              0.468514576449098E+02
             -0.206373118620661E+02
             -0.229292274764191E+02
              0.189719212094255E+02
             -0.110880998891092E+03
              0.528549838359988E+02
             -0.287366387705626E+02
             -0.326437348084406E+01
             -0.113015402466382E+02
             -0.889504623412859E+01
             -0.461237219153489E+01
              0.871000798761713E+02
             -0.183460754134819E+02
             -0.891089904960791E+01
             -0.510687760988427E+02
              0.806829215622811E+02
             -0.187092204221802E+02
             -0.369490925419530E+02
              0.246984264487640E+02
             -0.280634372832145E+01
              0.159806985571499E+02
             -0.490286315426766E+01
              0.108301962896513E+02
              0.282648347804941E+02
             -0.101960450363512E+03
              0.550924739762112E+02
              0.140606853491606E+02
             -0.152672483912994E+01
             -0.357550151959188E+02
              0.121594109780407E+02
             -0.143948678662512E+02
              0.391516993740295E+02
              0.360207187249622E+02
             -0.305895035363568E+02
             -0.270830412151126E+02
             -0.324112359846204E+02
             -0.347006074721291E+02
              0.132932315619150E+02
             -0.483831848151001E+02
              0.113233879182715E+02
              0.614612995294700E+02
              0.624753784798828E+02
              0.351513072105253E+02
              0.152102929398691E+02
              0.265799547469529E+02
[...]
             -0.695686507470673E+02
             -0.989198217563512E+00
             -0.247351002093719E+01
             -0.867645129569132E+01
             -0.184188409114950E+01
             -0.644110458584262E+02
             -0.209894664403558E+02
              0.519327450922048E+01
              0.876685196261644E+01
              0.461816933972259E+02
             -0.391768326821078E+02
              0.650571937749841E+02
             -0.419991556722326E+02
              0.206401986734745E+02
              0.344322576201033E+02

 BEEF-vdW xc energy contributions
           1 :   -773.083308079037
           2 :    711.089847029787
           3 :   -603.371567666933
           4 :    476.022863609039
           5 :   -355.957070115684
           6 :    262.819744352136
           7 :   -204.374940109061
           8 :    176.364739750833
           9 :   -166.409553508945
          10 :    160.067950529489
          11 :   -146.566278371501
          12 :    122.041422489696
          13 :   -89.4504698319473
          14 :    55.7339527084064
          15 :   -27.8713796451168
          16 :    9.62548206218673
          17 :  -0.249501437079971
          18 :   -4.58068484498619
          19 :    10.3057126127110
          20 :   -20.7958952319166
          21 :    36.6744422893852
          22 :   -55.3125559627272
          23 :    72.3319991403063
          24 :   -83.7945531215415
          25 :    88.0026111088415
          26 :   -86.1160531238584
          27 :    81.3915581764893
          28 :   -77.5075583835944
          29 :    76.8198712324719
          30 :   -79.3695844822785
          31 :   -84.5393886696016
          32 :   -64.9693140332250

     Writing output data file ./pwscf.save/

     General routines

     Parallel routines

   This run was terminated on:  18:24:36  20Dec2022

   JOB DONE.