     Program PWSCF v.6.7MaX starts on 20May2022 at 14:46:31

     Reading input from c2h2o-ensemble.in
Warning: card &CELL ignored
Warning: card / ignored

     Current dimensions of program PWSCF are:
     Max number of different atomic species (ntypx) = 10
     Max number of k-points (npk) =  40000
     Max angular momentum in pseudopotentials (lmaxx) =  3
     file Pt.pbe-n-kjpaw_psl.1.0.0.UPF: wavefunction(s)  6S 5D renormalized
     file C.pbe-n-kjpaw_psl.1.0.0.UPF: wavefunction(s)  2S 2P renormalized
     file O.pbe-nl-kjpaw_psl.1.0.0.UPF: wavefunction(s)  2S 2P renormalized
     file H.pbe-kjpaw_psl.1.0.0.UPF: wavefunction(s)  1S renormalized

     IMPORTANT: XC functional enforced from input :
     Exchange-correlation= BEEF-VDW
                           (   1   4  43  14   2   0   0)
     Any further DFT definition will be discarded
     Please, verify this is what you really want

     Subspace diagonalization in iterative solution of the eigenvalue problem:
     a serial algorithm will be used

     bravais-lattice index     =            0
     lattice parameter (alat)  =      16.0349  a.u.
     unit-cell volume          =   11449.5662 (a.u.)^3
     number of atoms/cell      =           41
     number of atomic types    =            4
     number of electrons       =       376.00
     number of Kohn-Sham states=          226
     kinetic-energy cutoff     =      60.0000  Ry
     charge density cutoff     =     240.0000  Ry
     scf convergence threshold =      1.0E-06
     mixing beta               =       0.7000
     number of iterations used =            8  local-TF  mixing
     Exchange-correlation= BEEF-VDW
                           (   1   4  43  14   2   0   0)

     celldm(1)=  16.034858  celldm(2)=   0.000000  celldm(3)=   0.000000
     celldm(4)=   0.000000  celldm(5)=   0.000000  celldm(6)=   0.000000

     crystal axes: (cart. coord. in units of alat)
               a(1) = (   1.000000   0.000000   0.000000 )
               a(2) = (   0.500000   0.866025   0.000000 )
               a(3) = (   0.000000   0.000000   3.206735 )

     reciprocal axes: (cart. coord. in units 2 pi/alat)
               b(1) = (  1.000000 -0.577350  0.000000 )
               b(2) = (  0.000000  1.154701  0.000000 )
               b(3) = (  0.000000  0.000000  0.311844 )

     PseudoPot. # 1 for Pt read from file:
     /users/bkreitz1/quantum-espresso/potentials/Pt.pbe-n-kjpaw_psl.1.0.0.UPF
     MD5 check sum: 04dc8a03c51ece93fc7b5889c2958091
     Pseudo is Projector augmented-wave + core cor, Zval = 10.0
     Generated using 'atomic' code by A. Dal Corso  v.6.7MaX
     Shape of augmentation charge: PSQ
     Using radial grid of 1277 points,  6 beta functions with:
                l(1) =   0
                l(2) =   0
                l(3) =   1
                l(4) =   1
                l(5) =   2
                l(6) =   2
     Q(r) pseudized with 0 coefficients

     PseudoPot. # 2 for C  read from file:
     /users/bkreitz1/quantum-espresso/potentials/C.pbe-n-kjpaw_psl.1.0.0.UPF
     MD5 check sum: a169b0ebad56f5ec0d79c4633f80bf22
     Pseudo is Projector augmented-wave + core cor, Zval =  4.0
     Generated using 'atomic' code by A. Dal Corso  v.6.7MaX
     Shape of augmentation charge: PSQ
     Using radial grid of 1073 points,  4 beta functions with:
                l(1) =   0
                l(2) =   0
                l(3) =   1
                l(4) =   1
     Q(r) pseudized with 0 coefficients

     PseudoPot. # 3 for O  read from file:
     /users/bkreitz1/quantum-espresso/potentials/O.pbe-nl-kjpaw_psl.1.0.0.UPF
     MD5 check sum: eef08af8b58d9ec80f8fdb78829eb7cf
     Pseudo is Projector augmented-wave + core cor, Zval =  6.0
     Generated using 'atomic' code by A. Dal Corso  v.6.7MaX
     Shape of augmentation charge: PSQ
     Using radial grid of 1095 points,  4 beta functions with:
                l(1) =   0
                l(2) =   0
                l(3) =   1
                l(4) =   1
     Q(r) pseudized with 0 coefficients

     PseudoPot. # 4 for H  read from file:
     /users/bkreitz1/quantum-espresso/potentials/H.pbe-kjpaw_psl.1.0.0.UPF
     MD5 check sum: ae98473e6dc62675f0d0baffdab24f65
     Pseudo is Projector augmented-wave, Zval =  1.0
     Generated using 'atomic' code by A. Dal Corso  v.6.7MaX
     Shape of augmentation charge: PSQ
     Using radial grid of  929 points,  2 beta functions with:
                l(1) =   0
                l(2) =   0
     Q(r) pseudized with 0 coefficients

     atomic species   valence    mass     pseudopotential
        Pt            10.00   195.08400     Pt( 1.00)
        C              4.00    12.01100     C ( 1.00)
        O              6.00    15.99900     O ( 1.00)
        H              1.00     1.00800     H ( 1.00)

     No symmetry found

   Cartesian axes

     site n.     atom                  positions (alat units)
         1           Pt  tau(   1) = (   0.0000000   0.0000000   1.0017346  )
         2           Pt  tau(   2) = (   0.3333333   0.0000000   1.0017346  )
         3           Pt  tau(   3) = (   0.6666667   0.0000000   1.0017346  )
         4           Pt  tau(   4) = (   0.1666667   0.2886751   1.0017346  )
         5           Pt  tau(   5) = (   0.5000000   0.2886751   1.0017346  )
         6           Pt  tau(   6) = (   0.8333333   0.2886751   1.0017346  )
         7           Pt  tau(   7) = (   0.3333333   0.5773503   1.0017346  )
         8           Pt  tau(   8) = (   0.6666667   0.5773503   1.0017346  )
         9           Pt  tau(   9) = (   1.0000000   0.5773503   1.0017346  )
        10           Pt  tau(  10) = (   0.1666667   0.0962250   1.2739001  )
        11           Pt  tau(  11) = (   0.5000000   0.0962250   1.2739001  )
        12           Pt  tau(  12) = (   0.8333333   0.0962250   1.2739001  )
        13           Pt  tau(  13) = (   0.3333333   0.3849002   1.2739001  )
        14           Pt  tau(  14) = (   0.6666667   0.3849002   1.2739001  )
        15           Pt  tau(  15) = (   1.0000000   0.3849002   1.2739001  )
        16           Pt  tau(  16) = (   0.5000000   0.6735753   1.2739001  )
        17           Pt  tau(  17) = (   0.8333333   0.6735753   1.2739001  )
        18           Pt  tau(  18) = (   1.1666667   0.6735753   1.2739001  )
        19           Pt  tau(  19) = (  -0.0000576   0.1924333   1.5417184  )
        20           Pt  tau(  20) = (   0.3349336   0.1937198   1.5467125  )
        21           Pt  tau(  21) = (   0.6649043   0.1937493   1.5467715  )
        22           Pt  tau(  22) = (   0.1664443   0.4811506   1.5424891  )
        23           Pt  tau(  23) = (   0.4999622   0.4790048   1.5468321  )
        24           Pt  tau(  24) = (   0.8334338   0.4811699   1.5425578  )
        25           Pt  tau(  25) = (   0.3334988   0.7700756   1.5413025  )
        26           Pt  tau(  26) = (   0.6663874   0.7700049   1.5413711  )
        27           Pt  tau(  27) = (   0.9999535   0.7699244   1.5426317  )
        28           Pt  tau(  28) = (  -0.0001089   0.0003487   1.8173879  )
        29           Pt  tau(  29) = (   0.3319113  -0.0015065   1.8157288  )
        30           Pt  tau(  30) = (   0.6678679  -0.0014734   1.8157457  )
        31           Pt  tau(  31) = (   0.1641547   0.2892068   1.8166841  )
        32           Pt  tau(  32) = (   0.4998555   0.2891922   1.8360695  )
        33           Pt  tau(  33) = (   0.8355755   0.2892285   1.8166937  )
        34           Pt  tau(  34) = (   0.3313965   0.5798587   1.8151297  )
        35           Pt  tau(  35) = (   0.6682427   0.5797851   1.8155154  )
        36           Pt  tau(  36) = (   0.9998434   0.5777667   1.8180057  )
        37           C   tau(  37) = (   0.4999391   0.2608102   2.0908148  )
        38           C   tau(  38) = (   0.4948421   0.4111487   2.1506633  )
        39           O   tau(  39) = (   0.4907453   0.5357579   2.2050003  )
        40           H   tau(  40) = (   0.3945961   0.1939644   2.1222558  )
        41           H   tau(  41) = (   0.6093380   0.2012708   2.1241926  )

     number of k points=    13  Marzari-Vanderbilt smearing, width (Ry)=  0.0200
                       cart. coord. in units 2pi/alat
        k(    1) = (   0.0000000   0.0000000   0.0000000), wk =   0.0800000
        k(    2) = (   0.0000000   0.2309401   0.0000000), wk =   0.1600000
        k(    3) = (   0.0000000   0.4618802   0.0000000), wk =   0.1600000
        k(    4) = (   0.2000000  -0.1154701   0.0000000), wk =   0.1600000
        k(    5) = (   0.2000000   0.1154701   0.0000000), wk =   0.1600000
        k(    6) = (   0.2000000   0.3464102   0.0000000), wk =   0.1600000
        k(    7) = (   0.2000000  -0.5773503   0.0000000), wk =   0.1600000
        k(    8) = (   0.2000000  -0.3464102   0.0000000), wk =   0.1600000
        k(    9) = (   0.4000000  -0.2309401   0.0000000), wk =   0.1600000
        k(   10) = (   0.4000000  -0.0000000   0.0000000), wk =   0.1600000
        k(   11) = (   0.4000000   0.2309401   0.0000000), wk =   0.1600000
        k(   12) = (   0.4000000  -0.6928203   0.0000000), wk =   0.1600000
        k(   13) = (   0.4000000  -0.4618802   0.0000000), wk =   0.1600000

     Check: negative core charge=   -0.000002

     Initial potential from superposition of free atoms

     starting charge  375.99379, renormalised to  376.00000

     negative rho (up, down):  1.197E-02 0.000E+00

     %%%%%%%%%%%%%%%%%%%%%%%%%%%%%%%%%%%%%%%%%%%%%%%%%%%%%%%%%%%%%%%%%%%%%%%%
     %                                                                      %
     % You are using vdW-DF, which was implemented by the Thonhauser group. %
     % Please cite the following two papers that made this development      %
     % possible and the two reviews that describe the various versions:     %
     %                                                                      %
     %   T. Thonhauser et al., PRL 115, 136402 (2015).                      %
     %   T. Thonhauser et al., PRB 76, 125112 (2007).                       %
     %   K. Berland et al., Rep. Prog. Phys. 78, 066501 (2015).             %
     %   D.C. Langreth et al., J. Phys.: Condens. Matter 21, 084203 (2009). %
     %                                                                      %
     %                                                                      %
     % If you are calculating the stress with vdW-DF, please also cite:     %
     %                                                                      %
     %   R. Sabatini et al., J. Phys.: Condens. Matter 24, 424209 (2012).   %
     %                                                                      %
     %%%%%%%%%%%%%%%%%%%%%%%%%%%%%%%%%%%%%%%%%%%%%%%%%%%%%%%%%%%%%%%%%%%%%%%%

     Starting wfcs are  338 randomized atomic wfcs
     Checking if some PAW data can be deallocated...

     Self-consistent Calculation

     iteration #  1     ecut=    60.00 Ry     beta= 0.70
     Davidson diagonalization with overlap
     ethr =  1.00E-02,  avg # of iterations =  2.0

     Threshold (ethr) on eigenvalues was too large:
     Diagonalizing with lowered threshold

     Davidson diagonalization with overlap
     ethr =  4.96E-04,  avg # of iterations =  3.8

[...]

     total energy              =  -27836.90086404 Ry
     estimated scf accuracy    <       2.09648726 Ry

[...]

     iteration #  4     ecut=    60.00 Ry     beta= 0.70
     Davidson diagonalization with overlap
     c_bands:  2 eigenvalues not converged
     c_bands:  1 eigenvalues not converged
     c_bands:  3 eigenvalues not converged
     ethr =  4.32E-05,  avg # of iterations = 15.9

[...]

     iteration # 11     ecut=    60.00 Ry     beta= 0.70
     Davidson diagonalization with overlap
     c_bands:  1 eigenvalues not converged
     c_bands:  1 eigenvalues not converged
     c_bands:  1 eigenvalues not converged
     ethr =  5.59E-07,  avg # of iterations =  6.3

[...]

     total energy              =  -27837.15383936 Ry
     estimated scf accuracy    <       0.00000114 Ry

     iteration # 21     ecut=    60.00 Ry     beta= 0.70
     Davidson diagonalization with overlap
     ethr =  3.03E-10,  avg # of iterations =  3.5

[...]

     End of self-consistent calculation

          k = 0.0000 0.0000 0.0000 ( 89827 PWs)   bands (ev):

   -23.1900 -14.1044  -7.8533  -6.6608  -6.4730  -6.4557  -5.8784  -5.3363
    -4.5400  -4.2921  -4.2483  -4.2455  -4.2442  -4.2393  -4.2226  -4.2087
    -4.2064  -3.7189  -3.6845  -3.6832  -3.6781  -3.6703  -3.6681  -3.2576
    -3.2245  -3.2221  -3.2105  -3.2027  -3.2019  -3.0865  -2.9951  -2.9943
    -2.9931  -2.9909  -2.9892  -2.8068  -2.7729  -2.7704  -2.7660  -2.7602
    -2.7597  -2.7505  -2.7489  -2.7368  -2.7260  -2.7258  -2.6928  -2.5127
    -2.1507  -2.1499  -2.1233  -2.1208  -2.0878  -2.0686  -2.0677  -2.0661
    -2.0649  -2.0333  -1.9191  -1.8970  -1.8353  -1.7079  -1.3712  -1.3335
    -1.3304  -1.3232  -1.3192  -1.3185  -1.2508  -1.1571  -1.1565  -1.1484
    -1.1472  -1.1266  -1.1254  -1.1088  -1.1062  -1.1032  -1.0796  -1.0771
    -1.0758  -1.0452  -1.0442  -1.0220  -0.9242  -0.9232  -0.9097  -0.9050
    -0.9043  -0.7845  -0.7546  -0.7413  -0.7402  -0.7094  -0.7073  -0.7067
    -0.6797  -0.6788  -0.6158  -0.6132  -0.5515  -0.5494  -0.4865  -0.4862
    -0.4575  -0.4489  -0.4404  -0.4326  -0.3187  -0.3147  -0.3101  -0.2876
    -0.2868  -0.2831  -0.0576   0.1665   0.1690   0.1723   0.1999   0.2126
     0.2134   0.2203   0.2669   0.2781   0.2803   0.2917   0.3036   0.3453
     0.3752   0.4741   0.5090   0.5108   0.5309   0.5461   0.5726   0.6181
     0.6199   0.6922   0.6946   0.7034   0.7037   0.9071   0.9112   0.9477
     0.9486   0.9513   0.9719   1.0199   1.0220   1.1846   1.1881   1.1963
     1.2126   1.2160   1.2480   1.3505   1.3556   1.3772   1.3803   1.3811
     1.3991   1.4006   1.4067   1.4134   1.4139   1.4185   1.5013   1.5178
     1.5179   1.5344   1.5350   1.5356   1.5782   1.5870   1.5981   1.6262
     1.6300   1.6550   1.6562   1.6754   1.6877   1.6994   1.7031   1.7673
     1.7691   1.7849   1.7944   1.7984   1.8098   1.8319   1.8845   1.8877
     1.8879   1.9142   1.9148   2.0939   2.0961   2.1896   2.1900   2.2225
     2.2242   2.2252   2.2382   2.2427   2.9572   3.0268   3.0623   3.0842
     3.0892   3.0956   3.5916   3.6143   4.9301   5.3421   5.3524   5.3711
     5.3950   5.4335   5.6023   6.3215   6.6415   6.9747   6.9890   7.0231
     7.0250   7.0354

[...]

          k = 0.4000-0.4619 0.0000 ( 89886 PWs)   bands (ev):

   -23.1900 -14.1044  -7.8523  -6.4747  -6.4589  -5.9017  -5.6940  -5.6404
    -5.0745  -4.5510  -4.4494  -4.4317  -3.9399  -3.9167  -3.7761  -3.7442
    -3.6464  -3.6296  -3.5298  -3.5193  -3.4246  -3.4184  -3.4000  -3.3728
    -3.3605  -3.3510  -3.3401  -3.2576  -3.1971  -3.1923  -3.1603  -3.1442
    -3.0764  -2.9993  -2.9410  -2.9142  -2.8451  -2.8023  -2.7873  -2.7713
    -2.7649  -2.6925  -2.6648  -2.6118  -2.5495  -2.4555  -2.3546  -2.3396
    -2.3018  -2.2209  -2.2012  -2.1596  -2.1268  -2.0316  -1.9831  -1.9604
    -1.9426  -1.9152  -1.8704  -1.8571  -1.8391  -1.7512  -1.7481  -1.7215
    -1.7159  -1.6989  -1.6944  -1.6726  -1.6382  -1.6052  -1.5053  -1.4787
    -1.4378  -1.4171  -1.3316  -1.2847  -1.2705  -1.2642  -1.2210  -1.1941
    -1.1911  -1.1635  -1.1070  -1.0814  -1.0590  -1.0470  -1.0186  -0.9673
    -0.9523  -0.9003  -0.8658  -0.8527  -0.8436  -0.7975  -0.7232  -0.6799
    -0.6696  -0.6473  -0.6374  -0.6018  -0.5914  -0.5767  -0.5650  -0.5441
    -0.5338  -0.5047  -0.4976  -0.4572  -0.4501  -0.4332  -0.4234  -0.4204
    -0.3956  -0.3898  -0.3518  -0.3290  -0.2932  -0.1298  -0.0818  -0.0219
    -0.0062   0.0870   0.0929   0.1053   0.1321   0.1614   0.1777   0.1968
     0.2185   0.2449   0.3078   0.3257   0.3403   0.3821   0.3948   0.4578
     0.4856   0.5060   0.5886   0.6684   0.7163   0.7264   0.7541   0.7778
     0.8347   0.8447   0.8704   0.8923   0.8996   0.9222   0.9494   0.9717
     1.0407   1.0549   1.0991   1.1264   1.1368   1.1448   1.1698   1.1825
     1.2532   1.3274   1.3875   1.4338   1.4944   1.5293   1.5865   1.5983
     1.6671   1.7140   1.7222   1.7509   1.8200   1.8596   1.8915   1.9224
     1.9399   1.9461   1.9596   1.9822   2.0152   2.0787   2.1005   2.1064
     2.1343   2.1501   2.1595   2.1642   2.2287   2.3160   2.3462   2.3722
     2.3814   2.3891   2.4130   2.4528   2.5670   2.6423   2.7259   3.5011
     3.5299   3.5373   3.6699   3.7842   3.8634   3.9079   3.9195   3.9734
     4.3801   4.4991   4.5423   4.8017   4.9901   5.0014   5.1027   5.1311
     5.2538   5.3891   5.4224   5.4574   5.5133   5.8693   5.9621   6.0295
     6.2709   6.6066

     the Fermi energy is     2.1510 ev

!    total energy              =  -27837.15383895 Ry

     total all-electron energy =  -1326948.294341 Ry
     estimated scf accuracy    <       0.00000088 Ry
     smearing contrib. (-TS)   =       0.00153526 Ry
     internal energy E=F+TS    =  -27837.15537421 Ry

     The total energy is F=E-TS. E is the sum of the following terms:
     one-electron contribution =  -27397.34859289 Ry
     hartree contribution      =   14006.21156293 Ry
     xc contribution           =    -908.68381474 Ry
     ewald contribution        =   11959.87857365 Ry
     one-center paw contrib.   =  -25497.21310316 Ry

     convergence has been achieved in  21 iterations

[...]

     Forces acting on atoms (cartesian axes, Ry/au):

     atom    1 type  1   force =     0.00002037    0.00015068   -0.00864250
     atom    2 type  1   force =    -0.00089835    0.00012545   -0.00329450
     atom    3 type  1   force =     0.00088809    0.00012311   -0.00329099
     atom    4 type  1   force =    -0.00045477   -0.00085168   -0.00325958
     atom    5 type  1   force =     0.00000541    0.00003086   -0.00388717
     atom    6 type  1   force =     0.00045398   -0.00083502   -0.00323667
     atom    7 type  1   force =     0.00069293    0.00071749   -0.00322080
     atom    8 type  1   force =    -0.00068871    0.00071878   -0.00320731
     atom    9 type  1   force =    -0.00000298   -0.00005886   -0.00328080
     atom   10 type  1   force =     0.00015463    0.00026147    0.00184166
     atom   11 type  1   force =    -0.00002744    0.00223035    0.00845348
     atom   12 type  1   force =    -0.00024496    0.00033818    0.00185561
     atom   13 type  1   force =     0.00199054   -0.00084143    0.00840091
     atom   14 type  1   force =    -0.00202508   -0.00084072    0.00851414
     atom   15 type  1   force =    -0.00004457    0.00042692    0.00191470
     atom   16 type  1   force =    -0.00001332   -0.00023495    0.00150149
     atom   17 type  1   force =     0.00035203   -0.00021961    0.00183337
     atom   18 type  1   force =    -0.00043434   -0.00021135    0.00170713
     atom   19 type  1   force =    -0.00005817    0.00009719   -0.00025578
     atom   20 type  1   force =     0.00001838    0.00005155    0.00005538
     atom   21 type  1   force =    -0.00000844    0.00006097    0.00000161
     atom   22 type  1   force =    -0.00004286    0.00004931   -0.00019080
     atom   23 type  1   force =     0.00001133    0.00005831    0.00016928
     atom   24 type  1   force =    -0.00008297    0.00005910   -0.00021461
     atom   25 type  1   force =    -0.00006453   -0.00002373   -0.00023229
     atom   26 type  1   force =     0.00006263   -0.00006521   -0.00022159
     atom   27 type  1   force =    -0.00002293    0.00001132   -0.00029030
     atom   28 type  1   force =     0.00001100   -0.00002527   -0.00019874
     atom   29 type  1   force =    -0.00001214   -0.00003186   -0.00003100
     atom   30 type  1   force =    -0.00008081   -0.00003842   -0.00006842
     atom   31 type  1   force =     0.00000154   -0.00002646   -0.00021044
     atom   32 type  1   force =     0.00023343   -0.00012490    0.00103021
     atom   33 type  1   force =    -0.00003517   -0.00005303   -0.00018588
     atom   34 type  1   force =     0.00007285   -0.00006545    0.00006988
     atom   35 type  1   force =    -0.00004905   -0.00009919    0.00010244
     atom   36 type  1   force =    -0.00002829    0.00000814   -0.00013822
     atom   37 type  2   force =     0.00275827   -0.00182280    0.00173852
     atom   38 type  2   force =    -0.00013439    0.00006643    0.00075677
     atom   39 type  3   force =     0.00013015   -0.00020158   -0.00001204
     atom   40 type  4   force =    -0.00060187    0.00016013   -0.00045698
     atom   41 type  4   force =    -0.00180142    0.00092575   -0.00191917

     Total force =     0.004973     Total SCF correction =     0.002360
     SCF correction compared to forces is large: reduce conv_thr to get better values

[...]

     negative rho (up, down):  1.324E-02 0.000E+00

     negative rho (up, down):  1.324E-02 0.000E+00
 BEEFens 2000 ensemble energies
             -0.608369824730182E+02
             -0.362359811905256E+01
             -0.158748892797882E+02
              0.430562037641996E+02
             -0.221779772958832E+02
             -0.205833578215507E+02
             -0.353271444534087E+02
             -0.867308523629674E+02
             -0.466293440296521E+02
             -0.473837424168512E+02
             -0.370270983924660E+02
              0.229506608908801E+01
              0.408047179961147E+01
              0.764140267570423E+01
              0.266305239054051E+01
              0.476084426565803E+02
             -0.209331173203645E+02
             -0.230669699496938E+02
              0.193377318149115E+02
             -0.112680832530438E+03
              0.537794391263306E+02
             -0.290439561941445E+02
             -0.334966911494675E+01
             -0.114400703481978E+02
             -0.884753951707023E+01
             -0.463959186759826E+01
              0.885031550109570E+02
             -0.187548016693361E+02
             -0.902424272990061E+01
             -0.519710403050013E+02
              0.817455165184570E+02
             -0.187712634646577E+02
             -0.375871750725270E+02
              0.249874808680484E+02
             -0.285115615757758E+01
              0.164572243310084E+02
             -0.485669011906339E+01
              0.108323676727950E+02
              0.289154394428350E+02
             -0.103528262253056E+03
              0.559850738973437E+02
              0.142715553953894E+02
             -0.172854753060244E+01
             -0.362443985724949E+02
              0.123442293261876E+02
             -0.147284186949745E+02
              0.399425820784837E+02
              0.365760179258706E+02
             -0.308777914977047E+02
             -0.275800818326433E+02
             -0.329158174310686E+02
             -0.353049192018182E+02
              0.136776538046796E+02
             -0.492115784438204E+02
              0.115939994166456E+02
              0.624804855770881E+02
              0.637079230282300E+02
              0.356848097096410E+02
              0.154475786081149E+02
              0.271297529205442E+02
[...]
             -0.707993005759621E+02
             -0.885024393249410E+00
             -0.247382319867430E+01
             -0.884579434009549E+01
             -0.180540941369640E+01
             -0.654444186631653E+02
             -0.211099822144134E+02
              0.541569613041780E+01
              0.902569671369713E+01
              0.469996265061447E+02
             -0.398626304978081E+02
              0.658862437159941E+02
             -0.426253471120840E+02
              0.210922759546997E+02
              0.351188114971671E+02

 BEEF-vdW xc energy contributions
           1 :   -784.643277230950
           2 :    720.745804074787
           3 :   -610.173690364078
           4 :    480.061186902292
           5 :   -357.912015181596
           6 :    263.538618762466
           7 :   -204.602018590460
           8 :    176.590105604599
           9 :   -166.821082485941
          10 :    160.597321496338
          11 :   -147.014738212169
          12 :    122.226220272204
          13 :   -89.3012893087903
          14 :    55.3178332946713
          15 :   -27.3611484520467
          16 :    9.22783392585018
          17 :  -0.119910491342694
          18 :   -4.39862922756811
          19 :    9.89265759567036
          20 :   -20.3144026799802
          21 :    36.2905109475315
          22 :   -55.1223923641084
          23 :    72.3279484520612
          24 :   -83.8800691497860
          25 :    88.0465496349099
          26 :   -86.0184578928399
          27 :    81.1280941325633
          28 :   -77.1351665509889
          29 :    76.4478791843968
          30 :   -79.1125082988868
          31 :   -86.0117036379916
          32 :   -65.8960492573666

     Writing output data file ./pwscf.save/

     General routines

     Parallel routines

   This run was terminated on:  19: 6:28  20May2022

   JOB DONE.