     Program PWSCF v.6.7MaX starts on 20May2022 at 14:47:24

     Reading input from c2h3o-ensemble.in
Warning: card &CELL ignored
Warning: card / ignored

     Current dimensions of program PWSCF are:
     Max number of different atomic species (ntypx) = 10
     Max number of k-points (npk) =  40000
     Max angular momentum in pseudopotentials (lmaxx) =  3
     file Pt.pbe-n-kjpaw_psl.1.0.0.UPF: wavefunction(s)  6S 5D renormalized
     file C.pbe-n-kjpaw_psl.1.0.0.UPF: wavefunction(s)  2S 2P renormalized
     file O.pbe-nl-kjpaw_psl.1.0.0.UPF: wavefunction(s)  2S 2P renormalized
     file H.pbe-kjpaw_psl.1.0.0.UPF: wavefunction(s)  1S renormalized

     IMPORTANT: XC functional enforced from input :
     Exchange-correlation= BEEF-VDW
                           (   1   4  43  14   2   0   0)
     Any further DFT definition will be discarded
     Please, verify this is what you really want

     Subspace diagonalization in iterative solution of the eigenvalue problem:
     a serial algorithm will be used

     bravais-lattice index     =            0
     lattice parameter (alat)  =      16.0349  a.u.
     unit-cell volume          =   11830.6828 (a.u.)^3
     number of atoms/cell      =           42
     number of atomic types    =            4
     number of electrons       =       377.00
     number of Kohn-Sham states=          227
     kinetic-energy cutoff     =      60.0000  Ry
     charge density cutoff     =     240.0000  Ry
     scf convergence threshold =      1.0E-06
     mixing beta               =       0.7000
     number of iterations used =            8  local-TF  mixing
     Exchange-correlation= BEEF-VDW
                           (   1   4  43  14   2   0   0)

     celldm(1)=  16.034858  celldm(2)=   0.000000  celldm(3)=   0.000000
     celldm(4)=   0.000000  celldm(5)=   0.000000  celldm(6)=   0.000000

     crystal axes: (cart. coord. in units of alat)
               a(1) = (   1.000000   0.000000   0.000000 )
               a(2) = (   0.500000   0.866025   0.000000 )
               a(3) = (   0.000000   0.000000   3.313476 )

     reciprocal axes: (cart. coord. in units 2 pi/alat)
               b(1) = (  1.000000 -0.577350  0.000000 )
               b(2) = (  0.000000  1.154701  0.000000 )
               b(3) = (  0.000000  0.000000  0.301798 )

     PseudoPot. # 1 for Pt read from file:
     /users/bkreitz1/quantum-espresso/potentials/Pt.pbe-n-kjpaw_psl.1.0.0.UPF
     MD5 check sum: 04dc8a03c51ece93fc7b5889c2958091
     Pseudo is Projector augmented-wave + core cor, Zval = 10.0
     Generated using 'atomic' code by A. Dal Corso  v.6.7MaX
     Shape of augmentation charge: PSQ
     Using radial grid of 1277 points,  6 beta functions with:
                l(1) =   0
                l(2) =   0
                l(3) =   1
                l(4) =   1
                l(5) =   2
                l(6) =   2
     Q(r) pseudized with 0 coefficients

     PseudoPot. # 2 for C  read from file:
     /users/bkreitz1/quantum-espresso/potentials/C.pbe-n-kjpaw_psl.1.0.0.UPF
     MD5 check sum: a169b0ebad56f5ec0d79c4633f80bf22
     Pseudo is Projector augmented-wave + core cor, Zval =  4.0
     Generated using 'atomic' code by A. Dal Corso  v.6.7MaX
     Shape of augmentation charge: PSQ
     Using radial grid of 1073 points,  4 beta functions with:
                l(1) =   0
                l(2) =   0
                l(3) =   1
                l(4) =   1
     Q(r) pseudized with 0 coefficients

     PseudoPot. # 3 for O  read from file:
     /users/bkreitz1/quantum-espresso/potentials/O.pbe-nl-kjpaw_psl.1.0.0.UPF
     MD5 check sum: eef08af8b58d9ec80f8fdb78829eb7cf
     Pseudo is Projector augmented-wave + core cor, Zval =  6.0
     Generated using 'atomic' code by A. Dal Corso  v.6.7MaX
     Shape of augmentation charge: PSQ
     Using radial grid of 1095 points,  4 beta functions with:
                l(1) =   0
                l(2) =   0
                l(3) =   1
                l(4) =   1
     Q(r) pseudized with 0 coefficients

     PseudoPot. # 4 for H  read from file:
     /users/bkreitz1/quantum-espresso/potentials/H.pbe-kjpaw_psl.1.0.0.UPF
     MD5 check sum: ae98473e6dc62675f0d0baffdab24f65
     Pseudo is Projector augmented-wave, Zval =  1.0
     Generated using 'atomic' code by A. Dal Corso  v.6.7MaX
     Shape of augmentation charge: PSQ
     Using radial grid of  929 points,  2 beta functions with:
                l(1) =   0
                l(2) =   0
     Q(r) pseudized with 0 coefficients

     atomic species   valence    mass     pseudopotential
        Pt            10.00   195.08400     Pt( 1.00)
        C              4.00    12.01100     C ( 1.00)
        O              6.00    15.99900     O ( 1.00)
        H              1.00     1.00800     H ( 1.00)

     No symmetry found

   Cartesian axes

     site n.     atom                  positions (alat units)
         1           Pt  tau(   1) = (   0.0000000   0.0000000   1.0017346  )
         2           Pt  tau(   2) = (   0.3333333   0.0000000   1.0017346  )
         3           Pt  tau(   3) = (   0.6666667   0.0000000   1.0017346  )
         4           Pt  tau(   4) = (   0.1666667   0.2886751   1.0017346  )
         5           Pt  tau(   5) = (   0.5000000   0.2886751   1.0017346  )
         6           Pt  tau(   6) = (   0.8333333   0.2886751   1.0017346  )
         7           Pt  tau(   7) = (   0.3333333   0.5773503   1.0017346  )
         8           Pt  tau(   8) = (   0.6666667   0.5773503   1.0017346  )
         9           Pt  tau(   9) = (   1.0000000   0.5773503   1.0017346  )
        10           Pt  tau(  10) = (   0.1666667   0.0962250   1.2739001  )
        11           Pt  tau(  11) = (   0.5000000   0.0962250   1.2739001  )
        12           Pt  tau(  12) = (   0.8333333   0.0962250   1.2739001  )
        13           Pt  tau(  13) = (   0.3333333   0.3849002   1.2739001  )
        14           Pt  tau(  14) = (   0.6666667   0.3849002   1.2739001  )
        15           Pt  tau(  15) = (   1.0000000   0.3849002   1.2739001  )
        16           Pt  tau(  16) = (   0.5000000   0.6735753   1.2739001  )
        17           Pt  tau(  17) = (   0.8333333   0.6735753   1.2739001  )
        18           Pt  tau(  18) = (   1.1666667   0.6735753   1.2739001  )
        19           Pt  tau(  19) = (  -0.0008195   0.1914940   1.5415421  )
        20           Pt  tau(  20) = (   0.3349372   0.1928060   1.5468345  )
        21           Pt  tau(  21) = (   0.6634750   0.1927437   1.5476341  )
        22           Pt  tau(  22) = (   0.1663478   0.4800460   1.5423995  )
        23           Pt  tau(  23) = (   0.4991072   0.4772280   1.5473798  )
        24           Pt  tau(  24) = (   0.8324805   0.4798320   1.5424529  )
        25           Pt  tau(  25) = (   0.3325986   0.7685092   1.5414896  )
        26           Pt  tau(  26) = (   0.6659288   0.7685593   1.5412942  )
        27           Pt  tau(  27) = (   0.9993345   0.7690004   1.5424655  )
        28           Pt  tau(  28) = (  -0.0016449  -0.0023508   1.8156590  )
        29           Pt  tau(  29) = (   0.3309325  -0.0029951   1.8151330  )
        30           Pt  tau(  30) = (   0.6664090  -0.0031666   1.8158687  )
        31           Pt  tau(  31) = (   0.1636128   0.2865983   1.8153973  )
        32           Pt  tau(  32) = (   0.4983571   0.2855290   1.8502227  )
        33           Pt  tau(  33) = (   0.8322568   0.2860643   1.8165187  )
        34           Pt  tau(  34) = (   0.3317872   0.5754813   1.8168588  )
        35           Pt  tau(  35) = (   0.6649141   0.5752001   1.8153462  )
        36           Pt  tau(  36) = (   0.9983671   0.5748567   1.8158820  )
        37           C   tau(  37) = (   0.5686762   0.3850998   2.1877129  )
        38           C   tau(  38) = (   0.4849995   0.2625400   2.0880092  )
        39           O   tau(  39) = (   0.4121227   0.1535622   2.1432066  )
        40           H   tau(  40) = (   0.5557551   0.3539827   2.3117414  )
        41           H   tau(  41) = (   0.6927016   0.3903624   2.1544606  )
        42           H   tau(  42) = (   0.5173511   0.5006517   2.1653914  )

     number of k points=    13  Marzari-Vanderbilt smearing, width (Ry)=  0.0200
                       cart. coord. in units 2pi/alat
        k(    1) = (   0.0000000   0.0000000   0.0000000), wk =   0.0800000
        k(    2) = (   0.0000000   0.2309401   0.0000000), wk =   0.1600000
        k(    3) = (   0.0000000   0.4618802   0.0000000), wk =   0.1600000
        k(    4) = (   0.2000000  -0.1154701   0.0000000), wk =   0.1600000
        k(    5) = (   0.2000000   0.1154701   0.0000000), wk =   0.1600000
        k(    6) = (   0.2000000   0.3464102   0.0000000), wk =   0.1600000
        k(    7) = (   0.2000000  -0.5773503   0.0000000), wk =   0.1600000
        k(    8) = (   0.2000000  -0.3464102   0.0000000), wk =   0.1600000
        k(    9) = (   0.4000000  -0.2309401   0.0000000), wk =   0.1600000
        k(   10) = (   0.4000000  -0.0000000   0.0000000), wk =   0.1600000
        k(   11) = (   0.4000000   0.2309401   0.0000000), wk =   0.1600000
        k(   12) = (   0.4000000  -0.6928203   0.0000000), wk =   0.1600000
        k(   13) = (   0.4000000  -0.4618802   0.0000000), wk =   0.1600000

     Check: negative core charge=   -0.000002

     Initial potential from superposition of free atoms

     starting charge  376.99378, renormalised to  377.00000

     negative rho (up, down):  1.199E-02 0.000E+00

     %%%%%%%%%%%%%%%%%%%%%%%%%%%%%%%%%%%%%%%%%%%%%%%%%%%%%%%%%%%%%%%%%%%%%%%%
     %                                                                      %
     % You are using vdW-DF, which was implemented by the Thonhauser group. %
     % Please cite the following two papers that made this development      %
     % possible and the two reviews that describe the various versions:     %
     %                                                                      %
     %   T. Thonhauser et al., PRL 115, 136402 (2015).                      %
     %   T. Thonhauser et al., PRB 76, 125112 (2007).                       %
     %   K. Berland et al., Rep. Prog. Phys. 78, 066501 (2015).             %
     %   D.C. Langreth et al., J. Phys.: Condens. Matter 21, 084203 (2009). %
     %                                                                      %
     %                                                                      %
     % If you are calculating the stress with vdW-DF, please also cite:     %
     %                                                                      %
     %   R. Sabatini et al., J. Phys.: Condens. Matter 24, 424209 (2012).   %
     %                                                                      %
     %%%%%%%%%%%%%%%%%%%%%%%%%%%%%%%%%%%%%%%%%%%%%%%%%%%%%%%%%%%%%%%%%%%%%%%%

     Starting wfcs are  339 randomized atomic wfcs
     Checking if some PAW data can be deallocated...

     Self-consistent Calculation

     iteration #  1     ecut=    60.00 Ry     beta= 0.70
     Davidson diagonalization with overlap
     ethr =  1.00E-02,  avg # of iterations =  2.5

     Threshold (ethr) on eigenvalues was too large:
     Diagonalizing with lowered threshold

     Davidson diagonalization with overlap
     ethr =  7.72E-04,  avg # of iterations =  2.7

[...]

     total energy              =  -27838.13303202 Ry
     estimated scf accuracy    <       3.11254372 Ry

[...]

     iteration #  6     ecut=    60.00 Ry     beta= 0.70
     Davidson diagonalization with overlap
     c_bands:  1 eigenvalues not converged
     c_bands:  2 eigenvalues not converged
     c_bands:  1 eigenvalues not converged
     ethr =  1.17E-05,  avg # of iterations = 11.0

[...]

     iteration #  8     ecut=    60.00 Ry     beta= 0.70
     Davidson diagonalization with overlap
     c_bands:  1 eigenvalues not converged
     ethr =  3.26E-06,  avg # of iterations =  8.4

[...]

     total energy              =  -27838.46075669 Ry
     estimated scf accuracy    <       0.00000244 Ry

     iteration # 20     ecut=    60.00 Ry     beta= 0.70
     Davidson diagonalization with overlap
     ethr =  6.49E-10,  avg # of iterations =  2.2

[...]

     End of self-consistent calculation

          k = 0.0000 0.0000 0.0000 ( 92939 PWs)   bands (ev):

   -20.6472 -12.3965  -7.4123  -7.1645  -5.9305  -5.3556  -4.8219  -4.8048
    -4.7874  -4.7825  -4.7752  -4.7627  -4.7462  -4.7336  -4.7051  -4.6507
    -4.2248  -4.2210  -4.2204  -4.2011  -4.1986  -4.1860  -3.7590  -3.7566
    -3.7488  -3.7384  -3.7325  -3.7094  -3.5662  -3.5358  -3.5309  -3.5284
    -3.5211  -3.5048  -3.3575  -3.3152  -3.3056  -3.3022  -3.2971  -3.2926
    -3.2838  -3.2810  -3.2777  -3.2545  -3.2429  -3.2268  -3.1709  -3.0065
    -2.6872  -2.6859  -2.6534  -2.6507  -2.6440  -2.5957  -2.5933  -2.5928
    -2.5751  -2.5677  -2.4567  -2.4382  -2.3759  -2.3009  -1.9566  -1.8807
    -1.8747  -1.8513  -1.8476  -1.8368  -1.7928  -1.7131  -1.7039  -1.6881
    -1.6869  -1.6644  -1.6611  -1.6529  -1.6364  -1.6341  -1.6155  -1.6102
    -1.6068  -1.5815  -1.5784  -1.5639  -1.4786  -1.4704  -1.4605  -1.4512
    -1.4418  -1.3708  -1.2966  -1.2839  -1.2803  -1.2489  -1.2366  -1.2363
    -1.2052  -1.1944  -1.1562  -1.1474  -1.0822  -1.0797  -1.0243  -1.0239
    -0.9861  -0.9847  -0.9492  -0.9314  -0.9001  -0.8613  -0.8490  -0.8149
    -0.8104  -0.7978  -0.6813  -0.4193  -0.4086  -0.3802  -0.3407  -0.3294
    -0.3256  -0.3188  -0.2663  -0.2642  -0.2621  -0.2240  -0.2173  -0.1851
    -0.1620  -0.0757  -0.0342  -0.0251  -0.0237   0.0095   0.0504   0.0628
     0.1070   0.1457   0.1607   0.1670   0.1760   0.2919   0.3523   0.3700
     0.4041   0.4090   0.4098   0.4412   0.4714   0.4773   0.6513   0.6601
     0.6641   0.6823   0.6868   0.7480   0.8124   0.8198   0.8362   0.8379
     0.8436   0.8596   0.8629   0.8776   0.8797   0.8886   0.8974   0.9653
     0.9700   0.9886   0.9988   1.0043   1.0094   1.0347   1.0639   1.0975
     1.0983   1.1066   1.1120   1.1387   1.1481   1.1536   1.1559   1.2255
     1.2258   1.2477   1.2511   1.2525   1.2721   1.2762   1.3443   1.3492
     1.3517   1.3761   1.3789   1.3961   1.5430   1.5613   1.6441   1.6515
     1.6864   1.6889   1.6917   1.7050   2.0879   2.4963   2.5457   2.5673
     2.5729   2.5801   2.6453   3.9355   4.6473   4.8503   4.8609   4.9077
     4.9176   4.9406   5.7754   5.9260   6.4313   6.4497   6.4712   6.4866
     6.4978   6.5085   6.5301

[...]

          k = 0.4000-0.4619 0.0000 ( 92850 PWs)   bands (ev):

   -20.6472 -12.3966  -7.3925  -6.2300  -6.2118  -5.6218  -5.4163  -5.0003
    -4.8782  -4.8031  -4.6621  -4.4600  -4.4287  -4.3095  -4.2743  -4.1711
    -4.1615  -4.0634  -4.0498  -3.9578  -3.9426  -3.9315  -3.9071  -3.8896
    -3.8643  -3.8593  -3.7505  -3.7280  -3.7188  -3.6828  -3.6752  -3.6001
    -3.5134  -3.4729  -3.4411  -3.3758  -3.3417  -3.3218  -3.3101  -3.2977
    -3.2418  -3.2170  -3.1664  -3.0907  -3.0458  -3.0197  -2.8965  -2.8821
    -2.8215  -2.7500  -2.7309  -2.6862  -2.6732  -2.5737  -2.5259  -2.4957
    -2.4792  -2.4569  -2.4116  -2.4035  -2.3833  -2.2873  -2.2770  -2.2542
    -2.2437  -2.2372  -2.2243  -2.2212  -2.1798  -2.1314  -2.0436  -2.0152
    -1.9769  -1.9517  -1.8605  -1.8419  -1.8200  -1.8023  -1.7734  -1.7431
    -1.7304  -1.7082  -1.6261  -1.6176  -1.6059  -1.5689  -1.5575  -1.5247
    -1.4773  -1.4330  -1.4054  -1.3946  -1.3723  -1.3514  -1.2729  -1.2201
    -1.2004  -1.1838  -1.1747  -1.1452  -1.1336  -1.1211  -1.0946  -1.0834
    -1.0648  -1.0416  -1.0199  -1.0042  -0.9831  -0.9686  -0.9611  -0.9444
    -0.9434  -0.9174  -0.8764  -0.8633  -0.8086  -0.6642  -0.6318  -0.5562
    -0.5477  -0.4821  -0.4637  -0.4427  -0.4205  -0.3885  -0.3647  -0.3386
    -0.3130  -0.2953  -0.2364  -0.2106  -0.2006  -0.1668  -0.1460  -0.0797
    -0.0571  -0.0338  -0.0065   0.1140   0.1413   0.1805   0.2145   0.2302
     0.2728   0.2845   0.3149   0.3467   0.3637   0.3806   0.4058   0.4284
     0.4541   0.5129   0.5254   0.5612   0.5940   0.6094   0.6289   0.6439
     0.6641   0.7628   0.7850   0.8590   0.8995   0.9650   1.0197   1.0542
     1.0668   1.1315   1.1840   1.1890   1.2306   1.2895   1.3340   1.3658
     1.3827   1.4086   1.4141   1.4323   1.4725   1.4857   1.5617   1.5678
     1.5836   1.6019   1.6224   1.6283   1.6494   1.6976   1.7952   1.8138
     1.8381   1.8451   1.8610   1.9115   1.9562   2.0300   2.1569   2.8194
     2.9870   2.9943   3.1612   3.2704   3.3436   3.3697   3.3915   3.6459
     3.9622   4.0041   4.1637   4.2497   4.4743   4.5383   4.5930   4.6322
     4.7645   4.8702   4.9540   5.0647   5.2154   5.4030   5.5480   5.6357
     6.0277   6.0979   6.1156

     the Fermi energy is     1.6117 ev

!    total energy              =  -27838.46075592 Ry

     total all-electron energy =  -1326949.601253 Ry
     estimated scf accuracy    <       0.00000073 Ry
     smearing contrib. (-TS)   =       0.00253261 Ry
     internal energy E=F+TS    =  -27838.46328853 Ry

     The total energy is F=E-TS. E is the sum of the following terms:
     one-electron contribution =  -29368.96803826 Ry
     hartree contribution      =   14986.12385708 Ry
     xc contribution           =    -909.52499010 Ry
     ewald contribution        =   12951.10352858 Ry
     one-center paw contrib.   =  -25497.19764583 Ry

     convergence has been achieved in  20 iterations

[...]

     Forces acting on atoms (cartesian axes, Ry/au):

     atom    1 type  1   force =     0.00022224    0.00010567   -0.00728092
     atom    2 type  1   force =    -0.00033027    0.00029387   -0.00356150
     atom    3 type  1   force =     0.00067119    0.00023056   -0.00339655
     atom    4 type  1   force =    -0.00018339   -0.00017804   -0.00346117
     atom    5 type  1   force =     0.00015865    0.00015587   -0.00320321
     atom    6 type  1   force =     0.00037260   -0.00016751   -0.00332461
     atom    7 type  1   force =     0.00066916    0.00084059   -0.00391828
     atom    8 type  1   force =    -0.00031709    0.00068554   -0.00335873
     atom    9 type  1   force =     0.00007702    0.00015282   -0.00328846
     atom   10 type  1   force =     0.00006633    0.00016172   -0.00088249
     atom   11 type  1   force =    -0.00011710    0.00184122    0.01003390
     atom   12 type  1   force =    -0.00038773    0.00000505   -0.00037597
     atom   13 type  1   force =     0.00168300   -0.00146768    0.01012027
     atom   14 type  1   force =    -0.00204909   -0.00176518    0.01051489
     atom   15 type  1   force =    -0.00039345   -0.00051284    0.00209241
     atom   16 type  1   force =    -0.00011967   -0.00027733    0.00010744
     atom   17 type  1   force =     0.00000552   -0.00050743    0.00196874
     atom   18 type  1   force =    -0.00043986   -0.00030597    0.00297116
     atom   19 type  1   force =     0.00000104    0.00014935   -0.00010597
     atom   20 type  1   force =    -0.00010012   -0.00006025   -0.00021392
     atom   21 type  1   force =    -0.00000096    0.00005428   -0.00035896
     atom   22 type  1   force =    -0.00030156    0.00003956   -0.00031603
     atom   23 type  1   force =    -0.00000769   -0.00000088   -0.00025665
     atom   24 type  1   force =     0.00022659    0.00005409   -0.00032307
     atom   25 type  1   force =    -0.00018837   -0.00005032   -0.00017839
     atom   26 type  1   force =     0.00024349    0.00005953   -0.00003225
     atom   27 type  1   force =    -0.00009466   -0.00016275   -0.00026299
     atom   28 type  1   force =     0.00009064    0.00012303    0.00046585
     atom   29 type  1   force =     0.00020026    0.00023359    0.00024320
     atom   30 type  1   force =    -0.00028729    0.00014679    0.00043034
     atom   31 type  1   force =     0.00026111    0.00001023    0.00028447
     atom   32 type  1   force =     0.00022877    0.00038440    0.00011460
     atom   33 type  1   force =    -0.00014755    0.00009154    0.00044934
     atom   34 type  1   force =     0.00003696   -0.00014624    0.00041411
     atom   35 type  1   force =     0.00002775    0.00005570    0.00036737
     atom   36 type  1   force =    -0.00001694    0.00017090    0.00041597
     atom   37 type  2   force =     0.00132784   -0.00071544    0.00094924
     atom   38 type  2   force =    -0.00102309   -0.00202408   -0.00168793
     atom   39 type  3   force =     0.00044788    0.00073844   -0.00046190
     atom   40 type  4   force =     0.00029045   -0.00078478   -0.00021427
     atom   41 type  4   force =     0.00016641    0.00029284    0.00031537
     atom   42 type  4   force =    -0.00096903    0.00204956   -0.00179444

     Total force =     0.004913     Total SCF correction =     0.001577
     SCF correction compared to forces is large: reduce conv_thr to get better values

[...]

     negative rho (up, down):  1.353E-02 0.000E+00

     negative rho (up, down):  1.353E-02 0.000E+00
 BEEFens 2000 ensemble energies
             -0.608952771741335E+02
             -0.362405904793215E+01
             -0.158800419893136E+02
              0.431056825255016E+02
             -0.221998320541868E+02
             -0.205917668865802E+02
             -0.353901001307275E+02
             -0.868313676392826E+02
             -0.466492478551677E+02
             -0.474229064291120E+02
             -0.370601053237345E+02
              0.230314967813634E+01
              0.407376971249641E+01
              0.762259842340293E+01
              0.266901672078828E+01
              0.476590698672316E+02
             -0.209532879395466E+02
             -0.230632364987198E+02
              0.193579604988788E+02
             -0.112787625946145E+03
              0.538375767136862E+02
             -0.290605032951853E+02
             -0.336524209885603E+01
             -0.114540737171874E+02
             -0.883190638097005E+01
             -0.464612820927678E+01
              0.885896617047170E+02
             -0.187958129895232E+02
             -0.903009213566520E+01
             -0.520256336934127E+02
              0.818010616112031E+02
             -0.187566224456833E+02
             -0.376322225059869E+02
              0.249968194975493E+02
             -0.285999176367733E+01
              0.164899929850909E+02
             -0.485668063897657E+01
              0.108255799140496E+02
              0.289502671046280E+02
             -0.103625005939363E+03
              0.560445356656256E+02
              0.142836733087632E+02
             -0.175818711635037E+01
             -0.362617530858533E+02
              0.123597787315766E+02
             -0.147591048331657E+02
              0.400031863320600E+02
              0.366097862969295E+02
             -0.308907869357274E+02
             -0.276093398588987E+02
             -0.329418617616233E+02
             -0.353448378604307E+02
              0.136998769775908E+02
             -0.492635855015856E+02
              0.116173793363268E+02
              0.625299004076344E+02
              0.637920204781005E+02
              0.357157005150581E+02
              0.154664338049145E+02
              0.271669964011490E+02
[...]
             -0.708771229275567E+02
             -0.865688054033967E+00
             -0.246943787990327E+01
             -0.885902831702629E+01
             -0.180621257335071E+01
             -0.655135132737196E+02
             -0.211095793471719E+02
              0.543060604779704E+01
              0.904152164758264E+01
              0.470570559264777E+02
             -0.399102394630299E+02
              0.659248760155482E+02
             -0.426653464492046E+02
              0.211294313189956E+02
              0.351698438886618E+02

 BEEF-vdW xc energy contributions
           1 :   -785.309753746818
           2 :    721.227383050349
           3 :   -610.401872283302
           4 :    480.098271376089
           5 :   -357.877203561346
           6 :    263.519833598552
           7 :   -204.614458644742
           8 :    176.590916601891
           9 :   -166.756614193095
          10 :    160.447081573334
          11 :   -146.804446967643
          12 :    122.013998735457
          13 :   -89.1525697540799
          14 :    55.2745412997248
          15 :   -27.4164226103654
          16 :    9.32879562847359
          17 :  -0.196220810088903
          18 :   -4.39928240574341
          19 :    9.97950875003903
          20 :   -20.4507759436357
          21 :    36.4159388592016
          22 :   -55.1852113286554
          23 :    72.3110401322471
          24 :   -83.8116726834097
          25 :    87.9876773774508
          26 :   -86.0303306075314
          27 :    81.2431090286030
          28 :   -77.3450345653027
          29 :    76.7029680286995
          30 :   -79.3348076343423
          31 :   -86.1157936241157
          32 :   -65.9468000200494

     Writing output data file ./pwscf.save/

     General routines

     Parallel routines

   This run was terminated on:  19:16:53  20May2022

   JOB DONE.