     Program PWSCF v.6.7MaX starts on 26Sep2022 at 14: 5: 4

     Reading input from c2h4-ensemble.in
Warning: card &CELL ignored
Warning: card / ignored

     Current dimensions of program PWSCF are:
     Max number of different atomic species (ntypx) = 10
     Max number of k-points (npk) =  40000
     Max angular momentum in pseudopotentials (lmaxx) =  3
     file Pt.pbe-n-kjpaw_psl.1.0.0.UPF: wavefunction(s)  6S 5D renormalized
     file H.pbe-kjpaw_psl.1.0.0.UPF: wavefunction(s)  1S renormalized
     file C.pbe-n-kjpaw_psl.1.0.0.UPF: wavefunction(s)  2S 2P renormalized

     IMPORTANT: XC functional enforced from input :
     Exchange-correlation= BEEF-VDW
                           (   1   4  43  14   2   0   0)
     Any further DFT definition will be discarded
     Please, verify this is what you really want

     Subspace diagonalization in iterative solution of the eigenvalue problem:
     a serial algorithm will be used

     bravais-lattice index     =            0
     lattice parameter (alat)  =      16.0349  a.u.
     unit-cell volume          =   11460.0365 (a.u.)^3
     number of atoms/cell      =           42
     number of atomic types    =            3
     number of electrons       =       372.00
     number of Kohn-Sham states=          223
     kinetic-energy cutoff     =      60.0000  Ry
     charge density cutoff     =     240.0000  Ry
     scf convergence threshold =      1.0E-06
     mixing beta               =       0.7000
     number of iterations used =            8  local-TF  mixing
     Exchange-correlation= BEEF-VDW
                           (   1   4  43  14   2   0   0)

     celldm(1)=  16.034858  celldm(2)=   0.000000  celldm(3)=   0.000000
     celldm(4)=   0.000000  celldm(5)=   0.000000  celldm(6)=   0.000000

     crystal axes: (cart. coord. in units of alat)
               a(1) = (   1.000000   0.000000   0.000000 )
               a(2) = (   0.500000   0.866025   0.000000 )
               a(3) = (   0.000000   0.000000   3.209667 )

     reciprocal axes: (cart. coord. in units 2 pi/alat)
               b(1) = (  1.000000 -0.577350  0.000000 )
               b(2) = (  0.000000  1.154701  0.000000 )
               b(3) = (  0.000000  0.000000  0.311559 )

     PseudoPot. # 1 for Pt read from file:
     /users/bkreitz1/quantum-espresso/potentials/Pt.pbe-n-kjpaw_psl.1.0.0.UPF
     MD5 check sum: 04dc8a03c51ece93fc7b5889c2958091
     Pseudo is Projector augmented-wave + core cor, Zval = 10.0
     Generated using 'atomic' code by A. Dal Corso  v.6.7MaX
     Shape of augmentation charge: PSQ
     Using radial grid of 1277 points,  6 beta functions with:
                l(1) =   0
                l(2) =   0
                l(3) =   1
                l(4) =   1
                l(5) =   2
                l(6) =   2
     Q(r) pseudized with 0 coefficients

     PseudoPot. # 2 for H  read from file:
     /users/bkreitz1/quantum-espresso/potentials/H.pbe-kjpaw_psl.1.0.0.UPF
     MD5 check sum: ae98473e6dc62675f0d0baffdab24f65
     Pseudo is Projector augmented-wave, Zval =  1.0
     Generated using 'atomic' code by A. Dal Corso  v.6.7MaX
     Shape of augmentation charge: PSQ
     Using radial grid of  929 points,  2 beta functions with:
                l(1) =   0
                l(2) =   0
     Q(r) pseudized with 0 coefficients

     PseudoPot. # 3 for C  read from file:
     /users/bkreitz1/quantum-espresso/potentials/C.pbe-n-kjpaw_psl.1.0.0.UPF
     MD5 check sum: a169b0ebad56f5ec0d79c4633f80bf22
     Pseudo is Projector augmented-wave + core cor, Zval =  4.0
     Generated using 'atomic' code by A. Dal Corso  v.6.7MaX
     Shape of augmentation charge: PSQ
     Using radial grid of 1073 points,  4 beta functions with:
                l(1) =   0
                l(2) =   0
                l(3) =   1
                l(4) =   1
     Q(r) pseudized with 0 coefficients

     atomic species   valence    mass     pseudopotential
        Pt            10.00   195.08400     Pt( 1.00)
        H              1.00     1.00800     H ( 1.00)
        C              4.00    12.01100     C ( 1.00)

     No symmetry found

   Cartesian axes

     site n.     atom                  positions (alat units)
         1           Pt  tau(   1) = (   0.0000000   0.0000000   1.0017346  )
         2           Pt  tau(   2) = (   0.3333333   0.0000000   1.0017346  )
         3           Pt  tau(   3) = (   0.6666667   0.0000000   1.0017346  )
         4           Pt  tau(   4) = (   0.1666667   0.2886751   1.0017346  )
         5           Pt  tau(   5) = (   0.5000000   0.2886751   1.0017346  )
         6           Pt  tau(   6) = (   0.8333333   0.2886751   1.0017346  )
         7           Pt  tau(   7) = (   0.3333333   0.5773503   1.0017346  )
         8           Pt  tau(   8) = (   0.6666667   0.5773503   1.0017346  )
         9           Pt  tau(   9) = (   1.0000000   0.5773503   1.0017346  )
        10           Pt  tau(  10) = (   0.1666667   0.0962250   1.2739001  )
        11           Pt  tau(  11) = (   0.5000000   0.0962250   1.2739001  )
        12           Pt  tau(  12) = (   0.8333333   0.0962250   1.2739001  )
        13           Pt  tau(  13) = (   0.3333333   0.3849002   1.2739001  )
        14           Pt  tau(  14) = (   0.6666667   0.3849002   1.2739001  )
        15           Pt  tau(  15) = (   1.0000000   0.3849002   1.2739001  )
        16           Pt  tau(  16) = (   0.5000000   0.6735753   1.2739001  )
        17           Pt  tau(  17) = (   0.8333333   0.6735753   1.2739001  )
        18           Pt  tau(  18) = (   1.1666667   0.6735753   1.2739001  )
        19           Pt  tau(  19) = (   0.0000594   0.1924596   1.5425653  )
        20           Pt  tau(  20) = (   0.3333363   0.1924731   1.5425374  )
        21           Pt  tau(  21) = (   0.6665796   0.1924739   1.5425170  )
        22           Pt  tau(  22) = (   0.1666184   0.4811539   1.5426376  )
        23           Pt  tau(  23) = (   0.4999587   0.4810972   1.5425187  )
        24           Pt  tau(  24) = (   0.8333673   0.4811733   1.5422323  )
        25           Pt  tau(  25) = (   0.3333423   0.7697470   1.5425665  )
        26           Pt  tau(  26) = (   0.6667448   0.7697674   1.5423685  )
        27           Pt  tau(  27) = (   0.9999740   0.7697554   1.5422326  )
        28           Pt  tau(  28) = (  -0.0001822   0.0000984   1.8164588  )
        29           Pt  tau(  29) = (   0.3332962   0.0000793   1.8161748  )
        30           Pt  tau(  30) = (   0.6669989   0.0001893   1.8162274  )
        31           Pt  tau(  31) = (   0.1666108   0.2886130   1.8166082  )
        32           Pt  tau(  32) = (   0.5000467   0.2886490   1.8165586  )
        33           Pt  tau(  33) = (   0.8333301   0.2882950   1.8162314  )
        34           Pt  tau(  34) = (   0.3333668   0.5774183   1.8166025  )
        35           Pt  tau(  35) = (   0.6665683   0.5773350   1.8161498  )
        36           Pt  tau(  36) = (   0.9999198   0.5773804   1.8164541  )
        37           H   tau(  37) = (   0.8769009   0.4824208   2.2074114  )
        38           H   tau(  38) = (   0.6895598   0.5917190   2.1938807  )
        39           H   tau(  39) = (   0.8365917   0.8438955   2.1944113  )
        40           H   tau(  40) = (   1.0239519   0.7345909   2.2079375  )
        41           C   tau(  41) = (   0.8171424   0.5950469   2.2000240  )
        42           C   tau(  42) = (   0.8965293   0.7312018   2.2012651  )

     number of k points=    13  Marzari-Vanderbilt smearing, width (Ry)=  0.0200
                       cart. coord. in units 2pi/alat
        k(    1) = (   0.0000000   0.0000000   0.0000000), wk =   0.0800000
        k(    2) = (   0.0000000   0.2309401   0.0000000), wk =   0.1600000
        k(    3) = (   0.0000000   0.4618802   0.0000000), wk =   0.1600000
        k(    4) = (   0.2000000  -0.1154701   0.0000000), wk =   0.1600000
        k(    5) = (   0.2000000   0.1154701   0.0000000), wk =   0.1600000
        k(    6) = (   0.2000000   0.3464102   0.0000000), wk =   0.1600000
        k(    7) = (   0.2000000  -0.5773503   0.0000000), wk =   0.1600000
        k(    8) = (   0.2000000  -0.3464102   0.0000000), wk =   0.1600000
        k(    9) = (   0.4000000  -0.2309401   0.0000000), wk =   0.1600000
        k(   10) = (   0.4000000  -0.0000000   0.0000000), wk =   0.1600000
        k(   11) = (   0.4000000   0.2309401   0.0000000), wk =   0.1600000
        k(   12) = (   0.4000000  -0.6928203   0.0000000), wk =   0.1600000
        k(   13) = (   0.4000000  -0.4618802   0.0000000), wk =   0.1600000

     Check: negative core charge=   -0.000002

     Initial potential from superposition of free atoms

     starting charge  371.99377, renormalised to  372.00000

     negative rho (up, down):  1.099E-02 0.000E+00

     %%%%%%%%%%%%%%%%%%%%%%%%%%%%%%%%%%%%%%%%%%%%%%%%%%%%%%%%%%%%%%%%%%%%%%%%
     %                                                                      %
     % You are using vdW-DF, which was implemented by the Thonhauser group. %
     % Please cite the following two papers that made this development      %
     % possible and the two reviews that describe the various versions:     %
     %                                                                      %
     %   T. Thonhauser et al., PRL 115, 136402 (2015).                      %
     %   T. Thonhauser et al., PRB 76, 125112 (2007).                       %
     %   K. Berland et al., Rep. Prog. Phys. 78, 066501 (2015).             %
     %   D.C. Langreth et al., J. Phys.: Condens. Matter 21, 084203 (2009). %
     %                                                                      %
     %                                                                      %
     % If you are calculating the stress with vdW-DF, please also cite:     %
     %                                                                      %
     %   R. Sabatini et al., J. Phys.: Condens. Matter 24, 424209 (2012).   %
     %                                                                      %
     %%%%%%%%%%%%%%%%%%%%%%%%%%%%%%%%%%%%%%%%%%%%%%%%%%%%%%%%%%%%%%%%%%%%%%%%

     Starting wfcs are  336 randomized atomic wfcs
     Checking if some PAW data can be deallocated...

     Self-consistent Calculation

     iteration #  1     ecut=    60.00 Ry     beta= 0.70
     Davidson diagonalization with overlap
     ethr =  1.00E-02,  avg # of iterations =  2.0

[...]

     total energy              =  -27796.24366169 Ry
     estimated scf accuracy    <       4.69096417 Ry

[...]

     iteration #  7     ecut=    60.00 Ry     beta= 0.70
     Davidson diagonalization with overlap
     c_bands:  1 eigenvalues not converged
     c_bands:  1 eigenvalues not converged
     ethr =  7.22E-06,  avg # of iterations =  8.2

[...]

     iteration #  8     ecut=    60.00 Ry     beta= 0.70
     Davidson diagonalization with overlap
     c_bands:  2 eigenvalues not converged
     ethr =  1.92E-06,  avg # of iterations = 10.1

[...]

     total energy              =  -27797.12604980 Ry
     estimated scf accuracy    <       0.00000106 Ry

     iteration # 20     ecut=    60.00 Ry     beta= 0.70
     Davidson diagonalization with overlap
     ethr =  2.85E-10,  avg # of iterations =  2.2

[...]

     End of self-consistent calculation

          k = 0.0000 0.0000 0.0000 ( 89947 PWs)   bands (ev):

   -12.2505  -7.6704  -7.0589  -5.7482  -4.8086  -4.6723  -4.6376  -4.6360
    -4.6359  -4.6354  -4.6353  -4.6340  -4.6246  -4.0782  -4.0777  -4.0777
    -4.0770  -4.0767  -4.0763  -3.6079  -3.6041  -3.6029  -3.6028  -3.6026
    -3.6021  -3.5618  -3.3884  -3.3879  -3.3873  -3.3861  -3.3858  -3.3853
    -3.1621  -3.1597  -3.1550  -3.1547  -3.1406  -3.1396  -3.1393  -3.1388
    -3.1376  -3.1375  -3.1244  -3.1242  -2.5422  -2.5419  -2.5113  -2.5095
    -2.4549  -2.4539  -2.4533  -2.4531  -2.4524  -2.4522  -2.3165  -2.3153
    -2.2179  -2.2130  -1.9535  -1.7118  -1.7065  -1.7048  -1.7034  -1.7030
    -1.7021  -1.6384  -1.5511  -1.5510  -1.5192  -1.5179  -1.5067  -1.5062
    -1.4993  -1.4883  -1.4868  -1.4862  -1.4859  -1.4846  -1.4841  -1.4494
    -1.4494  -1.2984  -1.2914  -1.2908  -1.2894  -1.2883  -1.2867  -1.1410
    -1.1402  -1.1373  -1.1366  -1.1363  -1.1358  -1.0380  -1.0380  -0.9398
    -0.9398  -0.8925  -0.8759  -0.8756  -0.8693  -0.8317  -0.8298  -0.8246
    -0.8232  -0.7592  -0.6681  -0.6660  -0.6657  -0.6646  -0.6629  -0.6621
    -0.2412  -0.1713  -0.1705  -0.1700  -0.1684  -0.1683  -0.1667  -0.0980
    -0.0972  -0.0958  -0.0956  -0.0954  -0.0211  -0.0204  -0.0053   0.1452
     0.1458   0.1471   0.1492   0.1499   0.2610   0.2921   0.2970   0.2971
     0.3056   0.3058   0.3186   0.5607   0.5611   0.5612   0.5619   0.5626
     0.5635   0.6418   0.6419   0.8205   0.8214   0.8221   0.8257   0.8263
     0.8409   0.9949   0.9958   0.9960   0.9962   0.9964   0.9991   1.0351
     1.0359   1.0390   1.0398   1.0404   1.0869   1.1687   1.1694   1.1910
     1.1913   1.1916   1.1925   1.1928   1.1949   1.2969   1.2980   1.2985
     1.2998   1.3010   1.3044   1.3050   1.3051   1.4011   1.4020   1.4024
     1.4038   1.4042   1.4061   1.5035   1.5038   1.5131   1.5138   1.5142
     1.5172   1.6808   1.7316   1.7317   1.8385   1.8391   1.8413   1.8413
     1.8418   1.8426   2.6778   2.7076   2.7213   2.7223   2.7254   2.7258
     2.8630   4.9533   5.0428   5.0457   5.0527   5.0595   5.1228   5.8982
     6.1093   6.5929   6.6001   6.6510   6.6514   6.6530   6.6628

[...]

          k = 0.4000-0.4619 0.0000 ( 89982 PWs)   bands (ev):

   -12.2504  -7.6708  -6.0917  -6.0898  -5.4827  -4.8530  -4.8314  -4.7831
    -4.3187  -4.3143  -4.1839  -4.1504  -4.0407  -4.0404  -3.9329  -3.9323
    -3.8107  -3.8064  -3.8043  -3.7685  -3.7677  -3.7447  -3.7338  -3.6098
    -3.5991  -3.5984  -3.5627  -3.5554  -3.5485  -3.4524  -3.3601  -3.3428
    -3.2784  -3.1832  -3.1824  -3.1648  -3.1639  -3.1491  -3.0356  -3.0348
    -2.9412  -2.9401  -2.7668  -2.7585  -2.6992  -2.5985  -2.5976  -2.5467
    -2.5464  -2.4387  -2.3886  -2.3402  -2.3382  -2.3176  -2.2754  -2.2726
    -2.2434  -2.1395  -2.1378  -2.1116  -2.1076  -2.0992  -2.0974  -2.0971
    -2.0238  -2.0221  -1.9471  -1.8949  -1.8682  -1.8200  -1.8180  -1.7011
    -1.6652  -1.6613  -1.6590  -1.6161  -1.5722  -1.5715  -1.4878  -1.4591
    -1.4568  -1.4522  -1.4249  -1.3942  -1.3389  -1.3387  -1.2989  -1.2415
    -1.2400  -1.2206  -1.2185  -1.1098  -1.0620  -1.0601  -1.0176  -1.0138
    -0.9729  -0.9724  -0.9644  -0.9548  -0.9255  -0.9226  -0.8777  -0.8728
    -0.8401  -0.8302  -0.8230  -0.8224  -0.8206  -0.8032  -0.7737  -0.7123
    -0.7063  -0.7049  -0.5191  -0.4933  -0.4003  -0.3911  -0.3665  -0.2851
    -0.2713  -0.2665  -0.2404  -0.1819  -0.1802  -0.1765  -0.1594  -0.1177
    -0.0618  -0.0395  -0.0355   0.0302   0.0459   0.0867   0.1117   0.1575
     0.2380   0.3189   0.3722   0.3791   0.3935   0.3958   0.4869   0.4924
     0.4973   0.5157   0.5260   0.5650   0.5705   0.6035   0.6894   0.6950
     0.7116   0.7575   0.7593   0.7833   0.7892   0.8040   0.8486   0.9699
     1.0162   1.0517   1.1240   1.1476   1.2088   1.2106   1.2963   1.3370
     1.3423   1.3454   1.4476   1.4558   1.5233   1.5557   1.5634   1.5705
     1.5742   1.6180   1.6328   1.6535   1.7318   1.7326   1.7563   1.7836
     1.7842   1.7856   1.8229   1.8493   1.9905   1.9959   1.9971   1.9984
     1.9989   2.0734   2.1461   2.1874   2.3271   3.1467   3.1471   3.3705
     3.3998   3.4478   3.5499   3.5516   3.5611   3.9949   4.1552   4.1582
     4.6148   4.6351   4.6420   4.7580   4.7628   4.9770   5.0577   5.1174
     5.2436   5.4019   5.5668   5.5950   5.8719   6.1077   6.2409

     the Fermi energy is     1.7642 ev

!    total energy              =  -27797.12604903 Ry

     total all-electron energy =  -1326799.419647 Ry
     estimated scf accuracy    <       0.00000058 Ry
     smearing contrib. (-TS)   =       0.00274041 Ry
     internal energy E=F+TS    =  -27797.12878944 Ry

     The total energy is F=E-TS. E is the sum of the following terms:
     one-electron contribution =  -27235.07248367 Ry
     hartree contribution      =   13919.04819476 Ry
     xc contribution           =    -902.56423068 Ry
     ewald contribution        =   11908.51412135 Ry
     one-center paw contrib.   =  -25487.05439119 Ry

     convergence has been achieved in  20 iterations

[...]

     Forces acting on atoms (cartesian axes, Ry/au):

     atom    1 type  1   force =    -0.00003239   -0.00002217   -0.00331554
     atom    2 type  1   force =     0.00001643   -0.00013874   -0.00337356
     atom    3 type  1   force =    -0.00007132   -0.00001621   -0.00330347
     atom    4 type  1   force =     0.00050670    0.00027511   -0.00360834
     atom    5 type  1   force =    -0.00053889    0.00027701   -0.00376451
     atom    6 type  1   force =    -0.00005730    0.00000596   -0.00330208
     atom    7 type  1   force =    -0.00001553   -0.00065101   -0.00362777
     atom    8 type  1   force =     0.00008870   -0.00002551   -0.00337755
     atom    9 type  1   force =    -0.00014907    0.00003822   -0.00347397
     atom   10 type  1   force =    -0.00031072    0.00007714    0.00295187
     atom   11 type  1   force =     0.00019251    0.00018650    0.00285731
     atom   12 type  1   force =    -0.00000783   -0.00002629    0.00294723
     atom   13 type  1   force =    -0.00005151   -0.00002109    0.00463278
     atom   14 type  1   force =    -0.00008773   -0.00033897    0.00288986
     atom   15 type  1   force =    -0.00001136   -0.00026086    0.00281863
     atom   16 type  1   force =    -0.00026011    0.00016526    0.00297948
     atom   17 type  1   force =    -0.00005959   -0.00001794    0.00243174
     atom   18 type  1   force =     0.00018603    0.00005616    0.00282125
     atom   19 type  1   force =     0.00004407   -0.00003963   -0.00014298
     atom   20 type  1   force =    -0.00009139    0.00016430    0.00007564
     atom   21 type  1   force =    -0.00004615    0.00009483   -0.00029776
     atom   22 type  1   force =    -0.00004001   -0.00003803    0.00039974
     atom   23 type  1   force =    -0.00015192   -0.00005003    0.00010235
     atom   24 type  1   force =     0.00003213   -0.00018385    0.00020520
     atom   25 type  1   force =     0.00008801   -0.00012181   -0.00015490
     atom   26 type  1   force =    -0.00018196   -0.00000042    0.00002349
     atom   27 type  1   force =     0.00012293   -0.00007964    0.00019714
     atom   28 type  1   force =     0.00003504   -0.00006296    0.00061935
     atom   29 type  1   force =     0.00001974   -0.00003001   -0.00020335
     atom   30 type  1   force =    -0.00004547   -0.00007158    0.00025369
     atom   31 type  1   force =    -0.00001517    0.00004211    0.00084755
     atom   32 type  1   force =    -0.00008520    0.00001648    0.00078844
     atom   33 type  1   force =    -0.00001720    0.00001053    0.00025661
     atom   34 type  1   force =    -0.00009022   -0.00006846    0.00084509
     atom   35 type  1   force =    -0.00002342   -0.00007010   -0.00022247
     atom   36 type  1   force =    -0.00018571    0.00006477   -0.00018870
     atom   37 type  2   force =     0.00019005   -0.00043430   -0.00015027
     atom   38 type  2   force =    -0.00020342    0.00017014    0.00001412
     atom   39 type  2   force =    -0.00002438   -0.00024567    0.00124723
     atom   40 type  2   force =     0.00109247    0.00001177    0.00104976
     atom   41 type  3   force =     0.00113146    0.00057073    0.00114063
     atom   42 type  3   force =    -0.00089131    0.00078822   -0.00288893

     Total force =     0.004501     Total SCF correction =     0.002414
     SCF correction compared to forces is large: reduce conv_thr to get better values

[...]

     negative rho (up, down):  1.226E-02 0.000E+00

     negative rho (up, down):  1.226E-02 0.000E+00
 BEEFens 2000 ensemble energies
             -0.603944234432188E+02
             -0.358879317249290E+01
             -0.157537867703115E+02
              0.427501376013535E+02
             -0.220398683564347E+02
             -0.204514448569702E+02
             -0.350469074270522E+02
             -0.860671102173083E+02
             -0.463334652445523E+02
             -0.470957986935433E+02
             -0.367674922060274E+02
              0.227845865808379E+01
              0.403557595921353E+01
              0.763272597911075E+01
              0.262837107874697E+01
              0.472884609863193E+02
             -0.207848309652177E+02
             -0.229366337330814E+02
              0.191858071789910E+02
             -0.111911849271047E+03
              0.533890761203827E+02
             -0.288926777774121E+02
             -0.331136710144104E+01
             -0.113789415786221E+02
             -0.882008904047609E+01
             -0.458379022079964E+01
              0.878954329634933E+02
             -0.186419625659310E+02
             -0.894358030763090E+01
             -0.515874265581281E+02
              0.812154349997422E+02
             -0.186691373037106E+02
             -0.372977256802756E+02
              0.248196924684753E+02
             -0.283678083573074E+01
              0.162938235917994E+02
             -0.486674672057330E+01
              0.108043624496210E+02
              0.286978452805406E+02
             -0.102805635516670E+03
              0.556157479840338E+02
              0.141893795024000E+02
             -0.169797521777724E+01
             -0.359858682131851E+02
              0.122707285194074E+02
             -0.146306966886967E+02
              0.396161470996267E+02
              0.363291232155416E+02
             -0.307127983494752E+02
             -0.273499969077714E+02
             -0.326986362316645E+02
             -0.350682801517011E+02
              0.135767008066288E+02
             -0.488374048286684E+02
              0.114977120482962E+02
              0.620493207625087E+02
              0.632235754170095E+02
              0.354651922604726E+02
              0.153259703669675E+02
              0.269325803264119E+02
[...]
             -0.702901991047967E+02
             -0.867414163279705E+00
             -0.249262283826911E+01
             -0.877204487657150E+01
             -0.183765383178337E+01
             -0.649987852300404E+02
             -0.209891034362189E+02
              0.535135571320687E+01
              0.896226726688241E+01
              0.466681243206160E+02
             -0.395780366445649E+02
              0.654697808961060E+02
             -0.423461733686935E+02
              0.209393315183824E+02
              0.348344165963828E+02

 BEEF-vdW xc energy contributions
           1 :   -779.350650353989
           2 :    715.929564666283
           3 :   -606.207174360300
           4 :    477.152652324077
           5 :   -356.082728502327
           6 :    262.628385344837
           7 :   -204.323905690888
           8 :    176.626119587838
           9 :   -166.928808315603
          10 :    160.674602268272
          11 :   -147.085997937210
          12 :    122.368074196176
          13 :   -89.5642861633440
          14 :    55.6832356203175
          15 :   -27.7461496894704
          16 :    9.53253683236028
          17 :  -0.285055012272323
          18 :   -4.35928945461296
          19 :    9.90076417489377
          20 :   -20.2737220378298
          21 :    36.1447749941432
          22 :   -54.8877662162432
          23 :    72.0842109285034
          24 :   -83.7308659763711
          25 :    88.0673431624889
          26 :   -86.2185635028989
          27 :    81.4491896818627
          28 :   -77.4843566057182
          29 :    76.7418589285318
          30 :   -79.3126449471143
          31 :   -85.4460193329593
          32 :   -65.4748100077567

     Writing output data file ./pwscf.save/

     General routines

     Parallel routines

   This run was terminated on:  17:53:43  26Sep2022

   JOB DONE.