     Program PWSCF v.6.7MaX starts on 20May2022 at 14:48:53

     Reading input from c2ho-ensemble.in
Warning: card &CELL ignored
Warning: card / ignored

     Current dimensions of program PWSCF are:
     Max number of different atomic species (ntypx) = 10
     Max number of k-points (npk) =  40000
     Max angular momentum in pseudopotentials (lmaxx) =  3
     file Pt.pbe-n-kjpaw_psl.1.0.0.UPF: wavefunction(s)  6S 5D renormalized
     file C.pbe-n-kjpaw_psl.1.0.0.UPF: wavefunction(s)  2S 2P renormalized
     file O.pbe-nl-kjpaw_psl.1.0.0.UPF: wavefunction(s)  2S 2P renormalized
     file H.pbe-kjpaw_psl.1.0.0.UPF: wavefunction(s)  1S renormalized

     IMPORTANT: XC functional enforced from input :
     Exchange-correlation= BEEF-VDW
                           (   1   4  43  14   2   0   0)
     Any further DFT definition will be discarded
     Please, verify this is what you really want

     Subspace diagonalization in iterative solution of the eigenvalue problem:
     a serial algorithm will be used

     bravais-lattice index     =            0
     lattice parameter (alat)  =      16.0349  a.u.
     unit-cell volume          =   11329.0865 (a.u.)^3
     number of atoms/cell      =           40
     number of atomic types    =            4
     number of electrons       =       375.00
     number of Kohn-Sham states=          226
     kinetic-energy cutoff     =      60.0000  Ry
     charge density cutoff     =     240.0000  Ry
     scf convergence threshold =      1.0E-06
     mixing beta               =       0.7000
     number of iterations used =            8  local-TF  mixing
     Exchange-correlation= BEEF-VDW
                           (   1   4  43  14   2   0   0)

     celldm(1)=  16.034858  celldm(2)=   0.000000  celldm(3)=   0.000000
     celldm(4)=   0.000000  celldm(5)=   0.000000  celldm(6)=   0.000000

     crystal axes: (cart. coord. in units of alat)
               a(1) = (   1.000000   0.000000   0.000000 )
               a(2) = (   0.500000   0.866025   0.000000 )
               a(3) = (   0.000000   0.000000   3.172992 )

     reciprocal axes: (cart. coord. in units 2 pi/alat)
               b(1) = (  1.000000 -0.577350  0.000000 )
               b(2) = (  0.000000  1.154701  0.000000 )
               b(3) = (  0.000000  0.000000  0.315160 )

     PseudoPot. # 1 for Pt read from file:
     /users/bkreitz1/quantum-espresso/potentials/Pt.pbe-n-kjpaw_psl.1.0.0.UPF
     MD5 check sum: 04dc8a03c51ece93fc7b5889c2958091
     Pseudo is Projector augmented-wave + core cor, Zval = 10.0
     Generated using 'atomic' code by A. Dal Corso  v.6.7MaX
     Shape of augmentation charge: PSQ
     Using radial grid of 1277 points,  6 beta functions with:
                l(1) =   0
                l(2) =   0
                l(3) =   1
                l(4) =   1
                l(5) =   2
                l(6) =   2
     Q(r) pseudized with 0 coefficients

     PseudoPot. # 2 for C  read from file:
     /users/bkreitz1/quantum-espresso/potentials/C.pbe-n-kjpaw_psl.1.0.0.UPF
     MD5 check sum: a169b0ebad56f5ec0d79c4633f80bf22
     Pseudo is Projector augmented-wave + core cor, Zval =  4.0
     Generated using 'atomic' code by A. Dal Corso  v.6.7MaX
     Shape of augmentation charge: PSQ
     Using radial grid of 1073 points,  4 beta functions with:
                l(1) =   0
                l(2) =   0
                l(3) =   1
                l(4) =   1
     Q(r) pseudized with 0 coefficients

     PseudoPot. # 3 for O  read from file:
     /users/bkreitz1/quantum-espresso/potentials/O.pbe-nl-kjpaw_psl.1.0.0.UPF
     MD5 check sum: eef08af8b58d9ec80f8fdb78829eb7cf
     Pseudo is Projector augmented-wave + core cor, Zval =  6.0
     Generated using 'atomic' code by A. Dal Corso  v.6.7MaX
     Shape of augmentation charge: PSQ
     Using radial grid of 1095 points,  4 beta functions with:
                l(1) =   0
                l(2) =   0
                l(3) =   1
                l(4) =   1
     Q(r) pseudized with 0 coefficients

     PseudoPot. # 4 for H  read from file:
     /users/bkreitz1/quantum-espresso/potentials/H.pbe-kjpaw_psl.1.0.0.UPF
     MD5 check sum: ae98473e6dc62675f0d0baffdab24f65
     Pseudo is Projector augmented-wave, Zval =  1.0
     Generated using 'atomic' code by A. Dal Corso  v.6.7MaX
     Shape of augmentation charge: PSQ
     Using radial grid of  929 points,  2 beta functions with:
                l(1) =   0
                l(2) =   0
     Q(r) pseudized with 0 coefficients

     atomic species   valence    mass     pseudopotential
        Pt            10.00   195.08400     Pt( 1.00)
        C              4.00    12.01100     C ( 1.00)
        O              6.00    15.99900     O ( 1.00)
        H              1.00     1.00800     H ( 1.00)

     No symmetry found

   Cartesian axes

     site n.     atom                  positions (alat units)
         1           Pt  tau(   1) = (   0.0000000   0.0000000   1.0017346  )
         2           Pt  tau(   2) = (   0.3333333   0.0000000   1.0017346  )
         3           Pt  tau(   3) = (   0.6666667   0.0000000   1.0017346  )
         4           Pt  tau(   4) = (   0.1666667   0.2886751   1.0017346  )
         5           Pt  tau(   5) = (   0.5000000   0.2886751   1.0017346  )
         6           Pt  tau(   6) = (   0.8333333   0.2886751   1.0017346  )
         7           Pt  tau(   7) = (   0.3333333   0.5773503   1.0017346  )
         8           Pt  tau(   8) = (   0.6666667   0.5773503   1.0017346  )
         9           Pt  tau(   9) = (   1.0000000   0.5773503   1.0017346  )
        10           Pt  tau(  10) = (   0.1666667   0.0962250   1.2739001  )
        11           Pt  tau(  11) = (   0.5000000   0.0962250   1.2739001  )
        12           Pt  tau(  12) = (   0.8333333   0.0962250   1.2739001  )
        13           Pt  tau(  13) = (   0.3333333   0.3849002   1.2739001  )
        14           Pt  tau(  14) = (   0.6666667   0.3849002   1.2739001  )
        15           Pt  tau(  15) = (   1.0000000   0.3849002   1.2739001  )
        16           Pt  tau(  16) = (   0.5000000   0.6735753   1.2739001  )
        17           Pt  tau(  17) = (   0.8333333   0.6735753   1.2739001  )
        18           Pt  tau(  18) = (   1.1666667   0.6735753   1.2739001  )
        19           Pt  tau(  19) = (  -0.0024634   0.1937064   1.5473589  )
        20           Pt  tau(  20) = (   0.3357926   0.1937043   1.5473560  )
        21           Pt  tau(  21) = (   0.6666600   0.1923472   1.5453784  )
        22           Pt  tau(  22) = (   0.1666650   0.4801231   1.5422327  )
        23           Pt  tau(  23) = (   0.5010005   0.4802975   1.5461104  )
        24           Pt  tau(  24) = (   0.8323261   0.4803001   1.5461115  )
        25           Pt  tau(  25) = (   0.3338698   0.7687616   1.5419468  )
        26           Pt  tau(  26) = (   0.6666669   0.7684243   1.5431366  )
        27           Pt  tau(  27) = (   0.9994563   0.7687636   1.5419447  )
        28           Pt  tau(  28) = (   0.0003195  -0.0032998   1.8175178  )
        29           Pt  tau(  29) = (   0.3330019  -0.0033020   1.8175160  )
        30           Pt  tau(  30) = (   0.6666564  -0.0093550   1.8142055  )
        31           Pt  tau(  31) = (   0.1666607   0.2850519   1.8179016  )
        32           Pt  tau(  32) = (   0.4995187   0.2821863   1.8323420  )
        33           Pt  tau(  33) = (   0.8337888   0.2821848   1.8323468  )
        34           Pt  tau(  34) = (   0.3316711   0.5736099   1.8163759  )
        35           Pt  tau(  35) = (   0.6666599   0.5832959   1.8294499  )
        36           Pt  tau(  36) = (   1.0016488   0.5736117   1.8163741  )
        37           C   tau(  37) = (   0.6666471   0.3166630   2.0062640  )
        38           C   tau(  38) = (   0.6666691   0.4838477   2.0486734  )
        39           O   tau(  39) = (   0.6666982   0.5545880   2.1712570  )
        40           H   tau(  40) = (   0.6666429   0.2321540   2.1046143  )

     number of k points=    13  Marzari-Vanderbilt smearing, width (Ry)=  0.0200
                       cart. coord. in units 2pi/alat
        k(    1) = (   0.0000000   0.0000000   0.0000000), wk =   0.0800000
        k(    2) = (   0.0000000   0.2309401   0.0000000), wk =   0.1600000
        k(    3) = (   0.0000000   0.4618802   0.0000000), wk =   0.1600000
        k(    4) = (   0.2000000  -0.1154701   0.0000000), wk =   0.1600000
        k(    5) = (   0.2000000   0.1154701   0.0000000), wk =   0.1600000
        k(    6) = (   0.2000000   0.3464102   0.0000000), wk =   0.1600000
        k(    7) = (   0.2000000  -0.5773503   0.0000000), wk =   0.1600000
        k(    8) = (   0.2000000  -0.3464102   0.0000000), wk =   0.1600000
        k(    9) = (   0.4000000  -0.2309401   0.0000000), wk =   0.1600000
        k(   10) = (   0.4000000  -0.0000000   0.0000000), wk =   0.1600000
        k(   11) = (   0.4000000   0.2309401   0.0000000), wk =   0.1600000
        k(   12) = (   0.4000000  -0.6928203   0.0000000), wk =   0.1600000
        k(   13) = (   0.4000000  -0.4618802   0.0000000), wk =   0.1600000

     Check: negative core charge=   -0.000002

     Initial potential from superposition of free atoms

     starting charge  374.99380, renormalised to  375.00000

     negative rho (up, down):  1.215E-02 0.000E+00

     %%%%%%%%%%%%%%%%%%%%%%%%%%%%%%%%%%%%%%%%%%%%%%%%%%%%%%%%%%%%%%%%%%%%%%%%
     %                                                                      %
     % You are using vdW-DF, which was implemented by the Thonhauser group. %
     % Please cite the following two papers that made this development      %
     % possible and the two reviews that describe the various versions:     %
     %                                                                      %
     %   T. Thonhauser et al., PRL 115, 136402 (2015).                      %
     %   T. Thonhauser et al., PRB 76, 125112 (2007).                       %
     %   K. Berland et al., Rep. Prog. Phys. 78, 066501 (2015).             %
     %   D.C. Langreth et al., J. Phys.: Condens. Matter 21, 084203 (2009). %
     %                                                                      %
     %                                                                      %
     % If you are calculating the stress with vdW-DF, please also cite:     %
     %                                                                      %
     %   R. Sabatini et al., J. Phys.: Condens. Matter 24, 424209 (2012).   %
     %                                                                      %
     %%%%%%%%%%%%%%%%%%%%%%%%%%%%%%%%%%%%%%%%%%%%%%%%%%%%%%%%%%%%%%%%%%%%%%%%

     Starting wfcs are  337 randomized atomic wfcs
     Checking if some PAW data can be deallocated...

     Self-consistent Calculation

     iteration #  1     ecut=    60.00 Ry     beta= 0.70
     Davidson diagonalization with overlap
     ethr =  1.00E-02,  avg # of iterations =  2.0

     Threshold (ethr) on eigenvalues was too large:
     Diagonalizing with lowered threshold

     Davidson diagonalization with overlap
     ethr =  8.83E-04,  avg # of iterations =  2.5

[...]

     total energy              =  -27835.54619854 Ry
     estimated scf accuracy    <       3.54206928 Ry

[...]

     iteration #  6     ecut=    60.00 Ry     beta= 0.70
     Davidson diagonalization with overlap
     c_bands:  1 eigenvalues not converged
     c_bands:  1 eigenvalues not converged
     c_bands:  1 eigenvalues not converged
     ethr =  1.13E-05,  avg # of iterations = 12.8

[...]

     iteration #  8     ecut=    60.00 Ry     beta= 0.70
     Davidson diagonalization with overlap
     c_bands:  1 eigenvalues not converged
     c_bands:  1 eigenvalues not converged
     ethr =  7.67E-07,  avg # of iterations =  5.2

[...]

     total energy              =  -27835.96241533 Ry
     estimated scf accuracy    <       0.00000177 Ry

     iteration # 16     ecut=    60.00 Ry     beta= 0.70
     Davidson diagonalization with overlap
     ethr =  4.72E-10,  avg # of iterations =  1.0

[...]

     End of self-consistent calculation

          k = 0.0000 0.0000 0.0000 ( 88877 PWs)   bands (ev):

   -20.4835 -12.4853  -7.3013  -7.0734  -5.9324  -5.3653  -4.8860  -4.7113
    -4.6823  -4.6781  -4.6649  -4.6489  -4.6337  -4.6089  -4.4575  -4.4447
    -4.1681  -4.1112  -4.1051  -4.0925  -4.0452  -4.0431  -3.8628  -3.6658
    -3.6538  -3.6340  -3.6031  -3.5884  -3.4724  -3.4312  -3.4268  -3.4229
    -3.3739  -3.3387  -3.3019  -3.2372  -3.2270  -3.2133  -3.2015  -3.1953
    -3.1739  -3.1564  -3.1422  -3.1294  -3.1111  -3.0902  -2.7403  -2.6733
    -2.5875  -2.5857  -2.5748  -2.5682  -2.5424  -2.5036  -2.4954  -2.4849
    -2.3633  -2.3516  -2.3121  -2.3048  -2.1884  -1.9462  -1.8399  -1.7980
    -1.7717  -1.7591  -1.7465  -1.7261  -1.7072  -1.6208  -1.5785  -1.5774
    -1.5745  -1.5654  -1.5592  -1.5583  -1.5281  -1.5039  -1.5038  -1.4940
    -1.4754  -1.4586  -1.4539  -1.4441  -1.3812  -1.3722  -1.3649  -1.3635
    -1.3379  -1.3366  -1.1802  -1.1632  -1.1475  -1.1216  -1.1162  -1.1074
    -1.0993  -1.0775  -1.0352  -1.0294  -1.0152  -0.9859  -0.9274  -0.9227
    -0.8817  -0.8786  -0.8626  -0.8331  -0.7628  -0.7471  -0.7424  -0.7185
    -0.7043  -0.6988  -0.5675  -0.3323  -0.3243  -0.2983  -0.2914  -0.2307
    -0.2242  -0.2215  -0.2005  -0.1860  -0.1035  -0.0922  -0.0687  -0.0562
    -0.0149   0.0208   0.0288   0.0501   0.0705   0.1342   0.1420   0.2234
     0.2599   0.2678   0.2728   0.2778   0.3364   0.4586   0.4904   0.5164
     0.5181   0.5229   0.5545   0.5709   0.5978   0.6747   0.7408   0.7455
     0.7623   0.7901   0.8085   0.8167   0.8684   0.8804   0.9064   0.9461
     0.9566   0.9627   0.9686   0.9687   0.9853   0.9867   1.0003   1.0017
     1.0620   1.0728   1.0738   1.0810   1.0835   1.1581   1.1595   1.1795
     1.1898   1.1923   1.2237   1.2411   1.2670   1.3188   1.3247   1.3263
     1.3316   1.3461   1.3645   1.3859   1.3940   1.4430   1.4458   1.4577
     1.4680   1.4867   1.6036   1.6215   1.7208   1.7346   1.7360   1.7719
     1.7733   1.7912   1.9865   2.2827   2.3381   2.6054   2.6554   2.6582
     2.6810   3.2771   3.8728   4.5181   4.9433   4.9634   4.9764   5.2029
     5.5923   6.0941   6.2915   6.5880   6.5930   6.6084   6.6261   6.6542
     6.6709   6.7370

[...]

          k = 0.4000-0.4619 0.0000 ( 88896 PWs)   bands (ev):

   -20.4835 -12.4837  -7.3055  -6.1271  -6.1022  -5.5599  -5.4154  -4.9571
    -4.9342  -4.6682  -4.4534  -4.3210  -4.2800  -4.1809  -4.1411  -4.0623
    -4.0392  -3.9513  -3.9252  -3.8741  -3.8369  -3.8178  -3.7981  -3.7792
    -3.7633  -3.7330  -3.6860  -3.6093  -3.5991  -3.5892  -3.5582  -3.4995
    -3.4810  -3.4253  -3.3435  -3.2965  -3.2616  -3.2243  -3.1983  -3.1644
    -3.1438  -3.0965  -2.9898  -2.9627  -2.8990  -2.7794  -2.7716  -2.7302
    -2.6697  -2.6422  -2.5852  -2.5298  -2.4632  -2.4415  -2.4157  -2.3825
    -2.3617  -2.3216  -2.3025  -2.2661  -2.2206  -2.1937  -2.1767  -2.1528
    -2.1293  -2.1174  -2.0843  -2.0665  -2.0423  -2.0262  -1.9499  -1.9194
    -1.8655  -1.8407  -1.7698  -1.7296  -1.7185  -1.6826  -1.6616  -1.6361
    -1.6069  -1.5899  -1.5720  -1.5345  -1.5000  -1.4590  -1.4497  -1.3931
    -1.3541  -1.3121  -1.2934  -1.2859  -1.2657  -1.2261  -1.1719  -1.1226
    -1.1069  -1.0911  -1.0602  -1.0367  -1.0226  -1.0029  -0.9801  -0.9675
    -0.9498  -0.9397  -0.9249  -0.9024  -0.8691  -0.8572  -0.8360  -0.8229
    -0.8144  -0.7929  -0.7697  -0.6747  -0.5852  -0.5369  -0.5155  -0.4575
    -0.4434  -0.3784  -0.3723  -0.3417  -0.3026  -0.2937  -0.2581  -0.2453
    -0.2114  -0.1808  -0.1484  -0.1056  -0.0927  -0.0443   0.0027   0.0322
     0.0460   0.0862   0.1643   0.1985   0.2246   0.2499   0.3173   0.3451
     0.3816   0.3942   0.4403   0.4533   0.4653   0.4851   0.5302   0.5609
     0.5882   0.5989   0.6255   0.6709   0.6830   0.7114   0.7387   0.7762
     0.8403   0.9032   0.9758   0.9991   1.0417   1.1364   1.1527   1.1717
     1.1950   1.2786   1.2940   1.3331   1.3912   1.4161   1.4499   1.4835
     1.4921   1.5116   1.5464   1.5556   1.6269   1.6460   1.6499   1.6768
     1.6846   1.7096   1.7206   1.7894   1.8363   1.8734   1.9102   1.9304
     1.9384   1.9905   2.0128   2.1060   2.2029   2.3881   2.7964   3.0198
     3.0917   3.1395   3.3479   3.3981   3.4399   3.5692   3.7363   4.0006
     4.0931   4.2109   4.2924   4.5369   4.6424   4.6993   4.7958   4.8541
     4.9840   5.0686   5.2381   5.3747   5.5127   5.6502   6.0256   6.1161
     6.1795   6.2550

     the Fermi energy is     1.7144 ev

!    total energy              =  -27835.96241429 Ry

     total all-electron energy =  -1326947.102920 Ry
     estimated scf accuracy    <       0.00000043 Ry
     smearing contrib. (-TS)   =       0.00285263 Ry
     internal energy E=F+TS    =  -27835.96526693 Ry

     The total energy is F=E-TS. E is the sum of the following terms:
     one-electron contribution =  -27003.46601242 Ry
     hartree contribution      =   13803.94524436 Ry
     xc contribution           =    -908.00619394 Ry
     ewald contribution        =   11768.78563479 Ry
     one-center paw contrib.   =  -25497.22393972 Ry

     convergence has been achieved in  16 iterations

[...]

     Forces acting on atoms (cartesian axes, Ry/au):

     atom    1 type  1   force =    -0.00218588   -0.00048114   -0.00517340
     atom    2 type  1   force =     0.00218135   -0.00047520   -0.00517210
     atom    3 type  1   force =    -0.00000623   -0.00032717   -0.00453422
     atom    4 type  1   force =     0.00000147    0.00131246   -0.00427650
     atom    5 type  1   force =    -0.00064403   -0.00007367   -0.00322671
     atom    6 type  1   force =     0.00063481   -0.00006663   -0.00323859
     atom    7 type  1   force =    -0.00001721    0.00068282   -0.00400283
     atom    8 type  1   force =    -0.00000445    0.00052017   -0.00337946
     atom    9 type  1   force =     0.00000434    0.00068294   -0.00399966
     atom   10 type  1   force =     0.00000706    0.00276793   -0.00472953
     atom   11 type  1   force =    -0.00303069    0.00149828    0.00514478
     atom   12 type  1   force =     0.00300383    0.00151004    0.00515341
     atom   13 type  1   force =    -0.00015584   -0.00317183    0.00529056
     atom   14 type  1   force =    -0.00001029    0.00039385    0.01064327
     atom   15 type  1   force =     0.00014804   -0.00315156    0.00529798
     atom   16 type  1   force =     0.00121060    0.00065382    0.00273651
     atom   17 type  1   force =    -0.00120892    0.00066454    0.00275463
     atom   18 type  1   force =    -0.00001965   -0.00024091    0.00113332
     atom   19 type  1   force =    -0.00004385    0.00004443    0.00010981
     atom   20 type  1   force =     0.00003587    0.00003867    0.00010004
     atom   21 type  1   force =     0.00000110    0.00006792    0.00013923
     atom   22 type  1   force =    -0.00001059   -0.00014222   -0.00005679
     atom   23 type  1   force =     0.00002027   -0.00001983   -0.00005746
     atom   24 type  1   force =    -0.00002286   -0.00001844   -0.00005980
     atom   25 type  1   force =     0.00004298   -0.00002759   -0.00008758
     atom   26 type  1   force =     0.00000172   -0.00005943    0.00027382
     atom   27 type  1   force =    -0.00006204   -0.00003012   -0.00009603
     atom   28 type  1   force =    -0.00006055    0.00007660    0.00003236
     atom   29 type  1   force =     0.00004386    0.00006784    0.00003174
     atom   30 type  1   force =    -0.00000695    0.00012914   -0.00000583
     atom   31 type  1   force =    -0.00000702    0.00000958    0.00006458
     atom   32 type  1   force =     0.00020646   -0.00039291    0.00060302
     atom   33 type  1   force =    -0.00020034   -0.00039205    0.00060064
     atom   34 type  1   force =    -0.00009703    0.00000064    0.00007717
     atom   35 type  1   force =    -0.00000139   -0.00033958    0.00008586
     atom   36 type  1   force =     0.00008732   -0.00000488    0.00007177
     atom   37 type  2   force =     0.00047844   -0.00667020    0.00839275
     atom   38 type  2   force =    -0.00030437   -0.00021058    0.00179962
     atom   39 type  3   force =    -0.00000629   -0.00008924   -0.00064972
     atom   40 type  4   force =    -0.00000305    0.00526349   -0.00779066

     Total force =     0.014452     Total SCF correction =     0.002025
     SCF correction compared to forces is large: reduce conv_thr to get better values

[...]

     negative rho (up, down):  1.329E-02 0.000E+00

     negative rho (up, down):  1.329E-02 0.000E+00
 BEEFens 2000 ensemble energies
             -0.607646297005197E+02
             -0.362561286512107E+01
             -0.158708637648298E+02
              0.430134848818137E+02
             -0.221489228774947E+02
             -0.205730959445710E+02
             -0.352750705495281E+02
             -0.866420376590077E+02
             -0.466205037410060E+02
             -0.473843950097250E+02
             -0.369862119696779E+02
              0.226014626153578E+01
              0.407421202090774E+01
              0.765338030725439E+01
              0.266655679411923E+01
              0.475654168618261E+02
             -0.209348350798796E+02
             -0.230978695716488E+02
              0.193150839479867E+02
             -0.112572730985231E+03
              0.537258700591683E+02
             -0.290342846663386E+02
             -0.335398807605318E+01
             -0.114346282031406E+02
             -0.887361640147242E+01
             -0.467832911231605E+01
              0.884291420790704E+02
             -0.186956933364543E+02
             -0.903971032438938E+01
             -0.519218153767654E+02
              0.817305107666941E+02
             -0.187991835967278E+02
             -0.375694532722323E+02
              0.249940600191705E+02
             -0.284873793448236E+01
              0.164081108660770E+02
             -0.486926760826469E+01
              0.108433680087505E+02
              0.288310763994096E+02
             -0.103476869419220E+03
              0.559233563330492E+02
              0.142518704456468E+02
             -0.169356508432196E+01
             -0.362350367086905E+02
              0.123319214443410E+02
             -0.146793115798592E+02
              0.399032215821734E+02
              0.365531631791170E+02
             -0.308820608926932E+02
             -0.275637340349542E+02
             -0.328805725776291E+02
             -0.352559831508424E+02
              0.136077180704359E+02
             -0.491832947543635E+02
              0.115699071979182E+02
              0.624066371143649E+02
              0.636171073425161E+02
              0.356440025065228E+02
              0.154552446562266E+02
              0.270717659971558E+02
[...]
             -0.707196695960995E+02
             -0.924837166382645E+00
             -0.245693294080843E+01
             -0.884048167397918E+01
             -0.179067335191371E+01
             -0.653961107940294E+02
             -0.211417716282834E+02
              0.538518229715618E+01
              0.897456895257366E+01
              0.469462391581331E+02
             -0.398216035578207E+02
              0.658701890964110E+02
             -0.425931120954374E+02
              0.210459378473253E+02
              0.350849834571346E+02

 BEEF-vdW xc energy contributions
           1 :   -784.146177205381
           2 :    720.512673865842
           3 :   -610.278692622162
           4 :    480.387686585489
           5 :   -358.268966420771
           6 :    263.761770771872
           7 :   -204.599211894392
           8 :    176.346468454870
           9 :   -166.385702790117
          10 :    160.062980866973
          11 :   -146.489653354496
          12 :    121.804795528520
          13 :   -89.0425398045091
          14 :    55.2299224937321
          15 :   -27.3979569659951
          16 :    9.30894481691462
          17 :  -0.163818624334795
          18 :   -4.44255299282145
          19 :    10.0240645281651
          20 :   -20.4843915287348
          21 :    36.4280705655805
          22 :   -55.1700816178243
          23 :    72.2708188340026
          24 :   -83.7578456199763
          25 :    87.9378939480960
          26 :   -86.0026826168305
          27 :    81.2488395923400
          28 :   -77.3806736292557
          29 :    76.7503429681304
          30 :   -79.3675061830264
          31 :   -85.9248825253715
          32 :   -65.8808235298031

     Writing output data file ./pwscf.save/

     General routines

     Parallel routines

   This run was terminated on:  17:58:48  20May2022

   JOB DONE.