     Program PWSCF v.6.7MaX starts on 20May2022 at 14:49:58

     Reading input from c3h3-ensemble.in
Warning: card &CELL ignored
Warning: card / ignored

     Current dimensions of program PWSCF are:
     Max number of different atomic species (ntypx) = 10
     Max number of k-points (npk) =  40000
     Max angular momentum in pseudopotentials (lmaxx) =  3
     file Pt.pbe-n-kjpaw_psl.1.0.0.UPF: wavefunction(s)  6S 5D renormalized
     file C.pbe-n-kjpaw_psl.1.0.0.UPF: wavefunction(s)  2S 2P renormalized
     file H.pbe-kjpaw_psl.1.0.0.UPF: wavefunction(s)  1S renormalized

     IMPORTANT: XC functional enforced from input :
     Exchange-correlation= BEEF-VDW
                           (   1   4  43  14   2   0   0)
     Any further DFT definition will be discarded
     Please, verify this is what you really want

     Subspace diagonalization in iterative solution of the eigenvalue problem:
     a serial algorithm will be used

     bravais-lattice index     =            0
     lattice parameter (alat)  =      16.0349  a.u.
     unit-cell volume          =   12012.3507 (a.u.)^3
     number of atoms/cell      =           42
     number of atomic types    =            3
     number of electrons       =       375.00
     number of Kohn-Sham states=          226
     kinetic-energy cutoff     =      60.0000  Ry
     charge density cutoff     =     240.0000  Ry
     scf convergence threshold =      1.0E-06
     mixing beta               =       0.7000
     number of iterations used =            8  local-TF  mixing
     Exchange-correlation= BEEF-VDW
                           (   1   4  43  14   2   0   0)

     celldm(1)=  16.034858  celldm(2)=   0.000000  celldm(3)=   0.000000
     celldm(4)=   0.000000  celldm(5)=   0.000000  celldm(6)=   0.000000

     crystal axes: (cart. coord. in units of alat)
               a(1) = (   1.000000   0.000000   0.000000 )
               a(2) = (   0.500000   0.866025   0.000000 )
               a(3) = (   0.000000   0.000000   3.364357 )

     reciprocal axes: (cart. coord. in units 2 pi/alat)
               b(1) = (  1.000000 -0.577350  0.000000 )
               b(2) = (  0.000000  1.154701  0.000000 )
               b(3) = (  0.000000  0.000000  0.297234 )

     PseudoPot. # 1 for Pt read from file:
     /users/bkreitz1/quantum-espresso/potentials/Pt.pbe-n-kjpaw_psl.1.0.0.UPF
     MD5 check sum: 04dc8a03c51ece93fc7b5889c2958091
     Pseudo is Projector augmented-wave + core cor, Zval = 10.0
     Generated using 'atomic' code by A. Dal Corso  v.6.7MaX
     Shape of augmentation charge: PSQ
     Using radial grid of 1277 points,  6 beta functions with:
                l(1) =   0
                l(2) =   0
                l(3) =   1
                l(4) =   1
                l(5) =   2
                l(6) =   2
     Q(r) pseudized with 0 coefficients

     PseudoPot. # 2 for C  read from file:
     /users/bkreitz1/quantum-espresso/potentials/C.pbe-n-kjpaw_psl.1.0.0.UPF
     MD5 check sum: a169b0ebad56f5ec0d79c4633f80bf22
     Pseudo is Projector augmented-wave + core cor, Zval =  4.0
     Generated using 'atomic' code by A. Dal Corso  v.6.7MaX
     Shape of augmentation charge: PSQ
     Using radial grid of 1073 points,  4 beta functions with:
                l(1) =   0
                l(2) =   0
                l(3) =   1
                l(4) =   1
     Q(r) pseudized with 0 coefficients

     PseudoPot. # 3 for H  read from file:
     /users/bkreitz1/quantum-espresso/potentials/H.pbe-kjpaw_psl.1.0.0.UPF
     MD5 check sum: ae98473e6dc62675f0d0baffdab24f65
     Pseudo is Projector augmented-wave, Zval =  1.0
     Generated using 'atomic' code by A. Dal Corso  v.6.7MaX
     Shape of augmentation charge: PSQ
     Using radial grid of  929 points,  2 beta functions with:
                l(1) =   0
                l(2) =   0
     Q(r) pseudized with 0 coefficients

     atomic species   valence    mass     pseudopotential
        Pt            10.00   195.08400     Pt( 1.00)
        C              4.00    12.01100     C ( 1.00)
        H              1.00     1.00800     H ( 1.00)

     No symmetry found

   Cartesian axes

     site n.     atom                  positions (alat units)
         1           Pt  tau(   1) = (   0.0000000   0.0000000   1.0017346  )
         2           Pt  tau(   2) = (   0.3333333   0.0000000   1.0017346  )
         3           Pt  tau(   3) = (   0.6666667   0.0000000   1.0017346  )
         4           Pt  tau(   4) = (   0.1666667   0.2886751   1.0017346  )
         5           Pt  tau(   5) = (   0.5000000   0.2886751   1.0017346  )
         6           Pt  tau(   6) = (   0.8333333   0.2886751   1.0017346  )
         7           Pt  tau(   7) = (   0.3333333   0.5773503   1.0017346  )
         8           Pt  tau(   8) = (   0.6666667   0.5773503   1.0017346  )
         9           Pt  tau(   9) = (   1.0000000   0.5773503   1.0017346  )
        10           Pt  tau(  10) = (   0.1666667   0.0962250   1.2739001  )
        11           Pt  tau(  11) = (   0.5000000   0.0962250   1.2739001  )
        12           Pt  tau(  12) = (   0.8333333   0.0962250   1.2739001  )
        13           Pt  tau(  13) = (   0.3333333   0.3849002   1.2739001  )
        14           Pt  tau(  14) = (   0.6666667   0.3849002   1.2739001  )
        15           Pt  tau(  15) = (   1.0000000   0.3849002   1.2739001  )
        16           Pt  tau(  16) = (   0.5000000   0.6735753   1.2739001  )
        17           Pt  tau(  17) = (   0.8333333   0.6735753   1.2739001  )
        18           Pt  tau(  18) = (   1.1666667   0.6735753   1.2739001  )
        19           Pt  tau(  19) = (   0.0007938   0.1920949   1.5461313  )
        20           Pt  tau(  20) = (   0.3325710   0.1921931   1.5456260  )
        21           Pt  tau(  21) = (   0.6666651   0.1923282   1.5423229  )
        22           Pt  tau(  22) = (   0.1665385   0.4791286   1.5455107  )
        23           Pt  tau(  23) = (   0.4997489   0.4812412   1.5423050  )
        24           Pt  tau(  24) = (   0.8334884   0.4812460   1.5423082  )
        25           Pt  tau(  25) = (   0.3348934   0.7708108   1.5452718  )
        26           Pt  tau(  26) = (   0.6664163   0.7706146   1.5455836  )
        27           Pt  tau(  27) = (   0.9982813   0.7707793   1.5453544  )
        28           Pt  tau(  28) = (  -0.0032905  -0.0016332   1.8330132  )
        29           Pt  tau(  29) = (   0.3376787  -0.0027952   1.8316869  )
        30           Pt  tau(  30) = (   0.6668970   0.0000581   1.8172696  )
        31           Pt  tau(  31) = (   0.1669301   0.2919880   1.8339888  )
        32           Pt  tau(  32) = (   0.5029263   0.2904128   1.8164874  )
        33           Pt  tau(  33) = (   0.8304200   0.2904602   1.8167901  )
        34           Pt  tau(  34) = (   0.3332580   0.5773149   1.8171702  )
        35           Pt  tau(  35) = (   0.6666242   0.5739326   1.8163776  )
        36           Pt  tau(  36) = (   1.0002028   0.5770180   1.8174612  )
        37           C   tau(  37) = (   0.1702298   0.0941013   1.9672694  )
        38           C   tau(  38) = (   0.1575139   0.0957913   2.1378865  )
        39           C   tau(  39) = (   0.2487429   0.0110963   2.2362886  )
        40           H   tau(  40) = (   0.0652009   0.1714331   2.1849111  )
        41           H   tau(  41) = (   0.2317686   0.0172485   2.3626220  )
        42           H   tau(  42) = (   0.3410219  -0.0653711   2.1932514  )

     number of k points=    13  Marzari-Vanderbilt smearing, width (Ry)=  0.0200
                       cart. coord. in units 2pi/alat
        k(    1) = (   0.0000000   0.0000000   0.0000000), wk =   0.0800000
        k(    2) = (   0.0000000   0.2309401   0.0000000), wk =   0.1600000
        k(    3) = (   0.0000000   0.4618802   0.0000000), wk =   0.1600000
        k(    4) = (   0.2000000  -0.1154701   0.0000000), wk =   0.1600000
        k(    5) = (   0.2000000   0.1154701   0.0000000), wk =   0.1600000
        k(    6) = (   0.2000000   0.3464102   0.0000000), wk =   0.1600000
        k(    7) = (   0.2000000  -0.5773503   0.0000000), wk =   0.1600000
        k(    8) = (   0.2000000  -0.3464102   0.0000000), wk =   0.1600000
        k(    9) = (   0.4000000  -0.2309401   0.0000000), wk =   0.1600000
        k(   10) = (   0.4000000  -0.0000000   0.0000000), wk =   0.1600000
        k(   11) = (   0.4000000   0.2309401   0.0000000), wk =   0.1600000
        k(   12) = (   0.4000000  -0.6928203   0.0000000), wk =   0.1600000
        k(   13) = (   0.4000000  -0.4618802   0.0000000), wk =   0.1600000

     Check: negative core charge=   -0.000002

     Initial potential from superposition of free atoms

     starting charge  374.99374, renormalised to  375.00000

     negative rho (up, down):  1.153E-02 0.000E+00

     %%%%%%%%%%%%%%%%%%%%%%%%%%%%%%%%%%%%%%%%%%%%%%%%%%%%%%%%%%%%%%%%%%%%%%%%
     %                                                                      %
     % You are using vdW-DF, which was implemented by the Thonhauser group. %
     % Please cite the following two papers that made this development      %
     % possible and the two reviews that describe the various versions:     %
     %                                                                      %
     %   T. Thonhauser et al., PRL 115, 136402 (2015).                      %
     %   T. Thonhauser et al., PRB 76, 125112 (2007).                       %
     %   K. Berland et al., Rep. Prog. Phys. 78, 066501 (2015).             %
     %   D.C. Langreth et al., J. Phys.: Condens. Matter 21, 084203 (2009). %
     %                                                                      %
     %                                                                      %
     % If you are calculating the stress with vdW-DF, please also cite:     %
     %                                                                      %
     %   R. Sabatini et al., J. Phys.: Condens. Matter 24, 424209 (2012).   %
     %                                                                      %
     %%%%%%%%%%%%%%%%%%%%%%%%%%%%%%%%%%%%%%%%%%%%%%%%%%%%%%%%%%%%%%%%%%%%%%%%

     Starting wfcs are  339 randomized atomic wfcs
     Checking if some PAW data can be deallocated...

     Self-consistent Calculation

     iteration #  1     ecut=    60.00 Ry     beta= 0.70
     Davidson diagonalization with overlap
     ethr =  1.00E-02,  avg # of iterations =  2.1

[...]

     total energy              =  -27814.09113996 Ry
     estimated scf accuracy    <       4.53064965 Ry

[...]

     iteration #  5     ecut=    60.00 Ry     beta= 0.70
     Davidson diagonalization with overlap
     c_bands:  1 eigenvalues not converged
     ethr =  3.73E-05,  avg # of iterations = 10.5

[...]

     iteration # 17     ecut=    60.00 Ry     beta= 0.70
     Davidson diagonalization with overlap
     c_bands:  1 eigenvalues not converged
     ethr =  2.86E-09,  avg # of iterations =  3.4

[...]

     total energy              =  -27814.91085942 Ry
     estimated scf accuracy    <       0.00000136 Ry

     iteration # 19     ecut=    60.00 Ry     beta= 0.70
     Davidson diagonalization with overlap
     ethr =  3.63E-10,  avg # of iterations =  2.9

[...]

     End of self-consistent calculation

          k = 0.0000 0.0000 0.0000 ( 94393 PWs)   bands (ev):

   -13.8433 -10.8273  -7.9294  -7.1122  -5.9965  -5.7022  -5.0545  -4.8281
    -4.7790  -4.7507  -4.7421  -4.7262  -4.7041  -4.6986  -4.5696  -4.4677
    -4.2466  -4.1942  -4.1821  -4.1794  -4.1286  -4.0595  -3.9283  -3.7406
    -3.7390  -3.7319  -3.6391  -3.5743  -3.5448  -3.5172  -3.5151  -3.5119
    -3.4217  -3.3908  -3.3849  -3.3126  -3.3084  -3.2971  -3.2783  -3.2545
    -3.2326  -3.2310  -3.2089  -3.1995  -3.1916  -2.8832  -2.7956  -2.7105
    -2.6620  -2.6552  -2.6506  -2.6181  -2.6162  -2.5839  -2.5796  -2.5731
    -2.4337  -2.4151  -2.3939  -2.3484  -2.2934  -2.2141  -1.9300  -1.9245
    -1.8733  -1.8489  -1.8479  -1.8005  -1.7763  -1.7031  -1.6865  -1.6672
    -1.6598  -1.6527  -1.6493  -1.6422  -1.6110  -1.6027  -1.6009  -1.5681
    -1.5532  -1.5491  -1.5393  -1.5385  -1.4938  -1.4710  -1.4547  -1.4428
    -1.4366  -1.4349  -1.2564  -1.2559  -1.2378  -1.2099  -1.2029  -1.2020
    -1.2008  -1.1885  -1.1257  -1.1240  -1.1108  -1.0369  -1.0193  -0.9964
    -0.9808  -0.9754  -0.9605  -0.8669  -0.8600  -0.8428  -0.8379  -0.8290
    -0.8202  -0.7326  -0.6754  -0.4477  -0.3830  -0.3611  -0.3584  -0.3145
    -0.3115  -0.2992  -0.2954  -0.2811  -0.2745  -0.1680  -0.1656  -0.1139
    -0.1067  -0.0705  -0.0684  -0.0625  -0.0345  -0.0062   0.0414   0.1405
     0.1477   0.1780   0.1787   0.2266   0.2440   0.3812   0.4223   0.4237
     0.4393   0.4759   0.4789   0.5136   0.5572   0.5919   0.6017   0.6239
     0.6661   0.6903   0.6920   0.7131   0.7872   0.7995   0.8070   0.8565
     0.8568   0.8724   0.8738   0.8774   0.8836   0.9045   0.9057   0.9065
     0.9789   0.9822   0.9954   0.9963   1.0006   1.0730   1.0746   1.0881
     1.0921   1.0928   1.1335   1.1338   1.1795   1.2295   1.2341   1.2346
     1.2407   1.2414   1.2875   1.3133   1.3148   1.3504   1.3545   1.3557
     1.3792   1.3935   1.5291   1.5303   1.6380   1.6438   1.6443   1.6810
     1.6821   1.7000   2.2055   2.2076   2.2591   2.4760   2.5460   2.5478
     2.5772   3.3797   3.6491   4.5314   4.8447   4.8470   4.8622   5.1162
     5.2953   5.7012   5.9480   6.3166   6.4086   6.4713   6.4751   6.5087
     6.6209   6.6880

[...]

          k = 0.4000-0.4619 0.0000 ( 94286 PWs)   bands (ev):

   -13.8429 -10.8225  -7.8917  -6.2114  -6.1749  -5.8509  -5.5824  -5.0873
    -4.9048  -4.8485  -4.5377  -4.4003  -4.3012  -4.2723  -4.2072  -4.1268
    -4.1035  -4.0270  -4.0117  -3.9724  -3.9175  -3.9057  -3.8810  -3.8611
    -3.8255  -3.7998  -3.7186  -3.6912  -3.6824  -3.6717  -3.6444  -3.5897
    -3.5374  -3.4363  -3.3991  -3.3560  -3.3146  -3.2869  -3.2668  -3.2257
    -3.1931  -3.0942  -3.0555  -3.0198  -2.9028  -2.8720  -2.8569  -2.8265
    -2.7797  -2.7309  -2.6596  -2.6369  -2.5832  -2.5453  -2.5079  -2.4898
    -2.4502  -2.4136  -2.3816  -2.3547  -2.3313  -2.2784  -2.2713  -2.2404
    -2.2280  -2.2057  -2.1896  -2.1543  -2.1321  -2.1000  -2.0340  -1.9965
    -1.9582  -1.9281  -1.8605  -1.8056  -1.7994  -1.7757  -1.7414  -1.7223
    -1.6922  -1.6741  -1.6224  -1.5989  -1.5848  -1.5504  -1.5256  -1.4702
    -1.4235  -1.3985  -1.3842  -1.3622  -1.3476  -1.2838  -1.2518  -1.2127
    -1.2001  -1.1923  -1.1417  -1.1269  -1.1031  -1.0937  -1.0706  -1.0615
    -1.0404  -1.0194  -1.0011  -0.9767  -0.9446  -0.9392  -0.9280  -0.9199
    -0.9077  -0.8810  -0.8592  -0.7259  -0.6704  -0.6428  -0.5850  -0.5575
    -0.5062  -0.4634  -0.4404  -0.4155  -0.3822  -0.3559  -0.3389  -0.3313
    -0.3110  -0.2838  -0.2300  -0.2161  -0.1744  -0.1619  -0.0686  -0.0624
    -0.0527   0.0212   0.0318   0.1209   0.1638   0.1720   0.2431   0.2501
     0.2825   0.3006   0.3260   0.3529   0.3724   0.3908   0.4052   0.4751
     0.4941   0.5150   0.5190   0.5814   0.5959   0.6380   0.6432   0.7111
     0.7621   0.8482   0.8795   0.9323   0.9992   1.0450   1.0614   1.1121
     1.1258   1.1893   1.2002   1.2411   1.2897   1.3337   1.3493   1.3809
     1.4022   1.4164   1.4614   1.4792   1.5353   1.5479   1.5564   1.5737
     1.6041   1.6164   1.6291   1.7033   1.7310   1.7811   1.8178   1.8468
     1.8499   1.9017   1.9282   1.9824   2.0884   2.5275   2.6921   2.8952
     3.0107   3.0599   3.2445   3.2937   3.3255   3.4670   3.6727   3.8323
     4.0213   4.0618   4.1448   4.4700   4.5037   4.6067   4.7218   4.8133
     4.8926   4.9803   5.0386   5.2397   5.3853   5.4889   5.8753   6.0113
     6.0876   6.2611

     the Fermi energy is     1.6226 ev

!    total energy              =  -27814.91085931 Ry

     total all-electron energy =  -1326874.968559 Ry
     estimated scf accuracy    <       0.00000084 Ry
     smearing contrib. (-TS)   =       0.00491427 Ry
     internal energy E=F+TS    =  -27814.91577358 Ry

     The total energy is F=E-TS. E is the sum of the following terms:
     one-electron contribution =  -30259.97359323 Ry
     hartree contribution      =   15430.03867428 Ry
     xc contribution           =    -906.61255386 Ry
     ewald contribution        =   13415.26256772 Ry
     one-center paw contrib.   =  -25493.63086850 Ry

     convergence has been achieved in  19 iterations

[...]

     Forces acting on atoms (cartesian axes, Ry/au):

     atom    1 type  1   force =    -0.00003789   -0.00013228   -0.00315892
     atom    2 type  1   force =     0.00014985   -0.00006950   -0.00319261
     atom    3 type  1   force =    -0.00005187    0.00114791   -0.00376704
     atom    4 type  1   force =     0.00007749    0.00005108   -0.00319210
     atom    5 type  1   force =     0.00028560    0.00011455   -0.00394695
     atom    6 type  1   force =    -0.00026778    0.00010814   -0.00385941
     atom    7 type  1   force =     0.00134252   -0.00082027   -0.00383968
     atom    8 type  1   force =    -0.00006766   -0.00034895   -0.00396470
     atom    9 type  1   force =    -0.00094147   -0.00054706   -0.00374725
     atom   10 type  1   force =    -0.00001410    0.00008070    0.00989394
     atom   11 type  1   force =     0.00021467   -0.00226270    0.00398605
     atom   12 type  1   force =    -0.00011339   -0.00218008    0.00426627
     atom   13 type  1   force =    -0.00190017    0.00137283    0.00393353
     atom   14 type  1   force =    -0.00022999   -0.00003984    0.00150285
     atom   15 type  1   force =     0.00193521    0.00103023    0.00453124
     atom   16 type  1   force =    -0.00217594    0.00086409    0.00378785
     atom   17 type  1   force =     0.00209397    0.00106884    0.00413052
     atom   18 type  1   force =     0.00042013   -0.00021585   -0.00573743
     atom   19 type  1   force =     0.00019543   -0.00018287    0.00025035
     atom   20 type  1   force =     0.00003171   -0.00019039    0.00010453
     atom   21 type  1   force =     0.00005332   -0.00037159    0.00005633
     atom   22 type  1   force =     0.00011640    0.00025075   -0.00014529
     atom   23 type  1   force =    -0.00013458    0.00000548    0.00004527
     atom   24 type  1   force =     0.00030124    0.00005025    0.00008706
     atom   25 type  1   force =    -0.00024207   -0.00028368   -0.00007568
     atom   26 type  1   force =     0.00014649    0.00001583    0.00012158
     atom   27 type  1   force =     0.00049350   -0.00029076   -0.00006471
     atom   28 type  1   force =    -0.00017147   -0.00039928   -0.00038945
     atom   29 type  1   force =     0.00072151   -0.00044136   -0.00021567
     atom   30 type  1   force =     0.00017269   -0.00013167    0.00045709
     atom   31 type  1   force =     0.00022285    0.00026122   -0.00029623
     atom   32 type  1   force =     0.00017629   -0.00022084    0.00046916
     atom   33 type  1   force =     0.00025931   -0.00018641    0.00051220
     atom   34 type  1   force =     0.00024811   -0.00013756    0.00057016
     atom   35 type  1   force =     0.00019627   -0.00006962    0.00054052
     atom   36 type  1   force =     0.00011520   -0.00024045    0.00047290
     atom   37 type  2   force =    -0.00313654    0.00227110    0.00008222
     atom   38 type  2   force =    -0.00031446   -0.00014968   -0.00000138
     atom   39 type  2   force =    -0.00218570    0.00284050    0.00301444
     atom   40 type  3   force =     0.00061092   -0.00069348   -0.00011188
     atom   41 type  3   force =    -0.00078672    0.00073089   -0.00059832
     atom   42 type  3   force =     0.00219109   -0.00165823   -0.00251136

     Total force =     0.007590     Total SCF correction =     0.002233
     SCF correction compared to forces is large: reduce conv_thr to get better values

[...]

     negative rho (up, down):  1.301E-02 0.000E+00

     negative rho (up, down):  1.301E-02 0.000E+00
 BEEFens 2000 ensemble energies
             -0.606833526038785E+02
             -0.361653826026486E+01
             -0.158325280426804E+02
              0.429587743989692E+02
             -0.221198978601041E+02
             -0.205271280136635E+02
             -0.352365617998692E+02
             -0.865152063892138E+02
             -0.464949123128422E+02
             -0.472781013027271E+02
             -0.369427399665628E+02
              0.227435695968649E+01
              0.406600583641131E+01
              0.761640838904972E+01
              0.265786587117921E+01
              0.475016794327455E+02
             -0.208822144432025E+02
             -0.230115604431958E+02
              0.193114657483030E+02
             -0.112393886140117E+03
              0.536452430288386E+02
             -0.289883335130714E+02
             -0.335332855576790E+01
             -0.114112397033247E+02
             -0.882993836133710E+01
             -0.462927836680234E+01
              0.882829268196739E+02
             -0.187301567096499E+02
             -0.899531710336430E+01
             -0.518511708676289E+02
              0.815527492229592E+02
             -0.187160462212802E+02
             -0.375095931371380E+02
              0.249175210023081E+02
             -0.284912419033725E+01
              0.164252652891852E+02
             -0.485067214992523E+01
              0.108006732584113E+02
              0.288507925700309E+02
             -0.103276313978244E+03
              0.558498538271559E+02
              0.142361132041286E+02
             -0.173043822742807E+01
             -0.361435993486616E+02
              0.123236986649985E+02
             -0.146914220081821E+02
              0.398610941428624E+02
              0.364836210464707E+02
             -0.308056439613975E+02
             -0.275174251868066E+02
             -0.328570094734370E+02
             -0.352174225751119E+02
              0.136403951677297E+02
             -0.490917280301173E+02
              0.115637795447407E+02
              0.623058835685094E+02
              0.635549522296981E+02
              0.355884144529384E+02
              0.154022068992594E+02
              0.270590351293174E+02
[...]
             -0.706310349971366E+02
             -0.877904834550691E+00
             -0.246954482664465E+01
             -0.882716354645856E+01
             -0.180475110263444E+01
             -0.652902045585831E+02
             -0.210593130295034E+02
              0.539521136195620E+01
              0.899866373329877E+01
              0.468982076703518E+02
             -0.397833909674980E+02
              0.657109012786580E+02
             -0.425303301124659E+02
              0.210466293195720E+02
              0.350373820661621E+02

 BEEF-vdW xc energy contributions
           1 :   -782.812580961734
           2 :    719.131511676983
           3 :   -608.857940984122
           4 :    479.009698032742
           5 :   -357.071741210339
           6 :    262.876558093958
           7 :   -204.086097001635
           8 :    176.161560637395
           9 :   -166.401158388437
          10 :    160.127121810765
          11 :   -146.491097867091
          12 :    121.707896975880
          13 :   -88.8876982844544
          14 :    55.1023809795179
          15 :   -27.3758815843213
          16 :    9.41704322015130
          17 :  -0.364932542179076
          18 :   -4.21868295286231
          19 :    9.83897806951836
          20 :   -20.3613141469592
          21 :    36.3481415340284
          22 :   -55.0933855524311
          23 :    72.1677031247888
          24 :   -83.6288058792410
          25 :    87.8126497598162
          26 :   -85.9241450120236
          27 :    81.2509440400343
          28 :   -77.4720981955863
          29 :    76.9134275704444
          30 :   -79.5724213834825
          31 :   -85.8823496524672
          32 :   -65.8223986223761

     Writing output data file ./pwscf.save/

     General routines

     Parallel routines

   This run was terminated on:  18:39:25  20May2022

   JOB DONE.