     Program PWSCF v.6.7MaX starts on 20May2022 at 14:51:26

     Reading input from c3h4-ensemble.in
Warning: card &CELL ignored
Warning: card / ignored

     Current dimensions of program PWSCF are:
     Max number of different atomic species (ntypx) = 10
     Max number of k-points (npk) =  40000
     Max angular momentum in pseudopotentials (lmaxx) =  3
     file Pt.pbe-n-kjpaw_psl.1.0.0.UPF: wavefunction(s)  6S 5D renormalized
     file C.pbe-n-kjpaw_psl.1.0.0.UPF: wavefunction(s)  2S 2P renormalized
     file H.pbe-kjpaw_psl.1.0.0.UPF: wavefunction(s)  1S renormalized

     IMPORTANT: XC functional enforced from input :
     Exchange-correlation= BEEF-VDW
                           (   1   4  43  14   2   0   0)
     Any further DFT definition will be discarded
     Please, verify this is what you really want

     Subspace diagonalization in iterative solution of the eigenvalue problem:
     a serial algorithm will be used

     bravais-lattice index     =            0
     lattice parameter (alat)  =      16.0349  a.u.
     unit-cell volume          =   11311.9637 (a.u.)^3
     number of atoms/cell      =           43
     number of atomic types    =            3
     number of electrons       =       376.00
     number of Kohn-Sham states=          226
     kinetic-energy cutoff     =      60.0000  Ry
     charge density cutoff     =     240.0000  Ry
     scf convergence threshold =      1.0E-06
     mixing beta               =       0.7000
     number of iterations used =            8  local-TF  mixing
     Exchange-correlation= BEEF-VDW
                           (   1   4  43  14   2   0   0)

     celldm(1)=  16.034858  celldm(2)=   0.000000  celldm(3)=   0.000000
     celldm(4)=   0.000000  celldm(5)=   0.000000  celldm(6)=   0.000000

     crystal axes: (cart. coord. in units of alat)
               a(1) = (   1.000000   0.000000   0.000000 )
               a(2) = (   0.500000   0.866025   0.000000 )
               a(3) = (   0.000000   0.000000   3.168196 )

     reciprocal axes: (cart. coord. in units 2 pi/alat)
               b(1) = (  1.000000 -0.577350  0.000000 )
               b(2) = (  0.000000  1.154701  0.000000 )
               b(3) = (  0.000000  0.000000  0.315637 )

     PseudoPot. # 1 for Pt read from file:
     /users/bkreitz1/quantum-espresso/potentials/Pt.pbe-n-kjpaw_psl.1.0.0.UPF
     MD5 check sum: 04dc8a03c51ece93fc7b5889c2958091
     Pseudo is Projector augmented-wave + core cor, Zval = 10.0
     Generated using 'atomic' code by A. Dal Corso  v.6.7MaX
     Shape of augmentation charge: PSQ
     Using radial grid of 1277 points,  6 beta functions with:
                l(1) =   0
                l(2) =   0
                l(3) =   1
                l(4) =   1
                l(5) =   2
                l(6) =   2
     Q(r) pseudized with 0 coefficients

     PseudoPot. # 2 for C  read from file:
     /users/bkreitz1/quantum-espresso/potentials/C.pbe-n-kjpaw_psl.1.0.0.UPF
     MD5 check sum: a169b0ebad56f5ec0d79c4633f80bf22
     Pseudo is Projector augmented-wave + core cor, Zval =  4.0
     Generated using 'atomic' code by A. Dal Corso  v.6.7MaX
     Shape of augmentation charge: PSQ
     Using radial grid of 1073 points,  4 beta functions with:
                l(1) =   0
                l(2) =   0
                l(3) =   1
                l(4) =   1
     Q(r) pseudized with 0 coefficients

     PseudoPot. # 3 for H  read from file:
     /users/bkreitz1/quantum-espresso/potentials/H.pbe-kjpaw_psl.1.0.0.UPF
     MD5 check sum: ae98473e6dc62675f0d0baffdab24f65
     Pseudo is Projector augmented-wave, Zval =  1.0
     Generated using 'atomic' code by A. Dal Corso  v.6.7MaX
     Shape of augmentation charge: PSQ
     Using radial grid of  929 points,  2 beta functions with:
                l(1) =   0
                l(2) =   0
     Q(r) pseudized with 0 coefficients

     atomic species   valence    mass     pseudopotential
        Pt            10.00   195.08400     Pt( 1.00)
        C              4.00    12.01100     C ( 1.00)
        H              1.00     1.00800     H ( 1.00)

     No symmetry found

   Cartesian axes

     site n.     atom                  positions (alat units)
         1           Pt  tau(   1) = (   0.0000000   0.0000000   1.0017346  )
         2           Pt  tau(   2) = (   0.3333333   0.0000000   1.0017346  )
         3           Pt  tau(   3) = (   0.6666667   0.0000000   1.0017346  )
         4           Pt  tau(   4) = (   0.1666667   0.2886751   1.0017346  )
         5           Pt  tau(   5) = (   0.5000000   0.2886751   1.0017346  )
         6           Pt  tau(   6) = (   0.8333333   0.2886751   1.0017346  )
         7           Pt  tau(   7) = (   0.3333333   0.5773503   1.0017346  )
         8           Pt  tau(   8) = (   0.6666667   0.5773503   1.0017346  )
         9           Pt  tau(   9) = (   1.0000000   0.5773503   1.0017346  )
        10           Pt  tau(  10) = (   0.1666667   0.0962250   1.2739001  )
        11           Pt  tau(  11) = (   0.5000000   0.0962250   1.2739001  )
        12           Pt  tau(  12) = (   0.8333333   0.0962250   1.2739001  )
        13           Pt  tau(  13) = (   0.3333333   0.3849002   1.2739001  )
        14           Pt  tau(  14) = (   0.6666667   0.3849002   1.2739001  )
        15           Pt  tau(  15) = (   1.0000000   0.3849002   1.2739001  )
        16           Pt  tau(  16) = (   0.5000000   0.6735753   1.2739001  )
        17           Pt  tau(  17) = (   0.8333333   0.6735753   1.2739001  )
        18           Pt  tau(  18) = (   1.1666667   0.6735753   1.2739001  )
        19           Pt  tau(  19) = (  -0.0039854   0.1933704   1.5475605  )
        20           Pt  tau(  20) = (   0.3357615   0.1935938   1.5516275  )
        21           Pt  tau(  21) = (   0.6649001   0.1915348   1.5462019  )
        22           Pt  tau(  22) = (   0.1639334   0.4786312   1.5414271  )
        23           Pt  tau(  23) = (   0.4987565   0.4778290   1.5460614  )
        24           Pt  tau(  24) = (   0.8293766   0.4776164   1.5480158  )
        25           Pt  tau(  25) = (   0.3324123   0.7675562   1.5402864  )
        26           Pt  tau(  26) = (   0.6650706   0.7672075   1.5427869  )
        27           Pt  tau(  27) = (   0.9965003   0.7664469   1.5400339  )
        28           Pt  tau(  28) = (  -0.0036782  -0.0044641   1.8153576  )
        29           Pt  tau(  29) = (   0.3284870  -0.0057771   1.8166372  )
        30           Pt  tau(  30) = (   0.6606010  -0.0135424   1.8085240  )
        31           Pt  tau(  31) = (   0.1622251   0.2830318   1.8201590  )
        32           Pt  tau(  32) = (   0.4959555   0.2839100   1.8433422  )
        33           Pt  tau(  33) = (   0.8332040   0.2780597   1.8377094  )
        34           Pt  tau(  34) = (   0.3247196   0.5720800   1.8130887  )
        35           Pt  tau(  35) = (   0.6587207   0.5798088   1.8265832  )
        36           Pt  tau(  36) = (   0.9943388   0.5704188   1.8162805  )
        37           C   tau(  37) = (   0.6826338   0.2502151   2.0189597  )
        38           C   tau(  38) = (   0.5887464   0.3745038   2.0802408  )
        39           C   tau(  39) = (   0.6374116   0.5407171   2.0693416  )
        40           H   tau(  40) = (   0.6823973   0.1376886   2.0808406  )
        41           H   tau(  41) = (   0.4982792   0.3443507   2.1664613  )
        42           H   tau(  42) = (   0.5548796   0.6228575   2.1229308  )
        43           H   tau(  43) = (   0.7573347   0.5597770   2.1131144  )

     number of k points=    13  Marzari-Vanderbilt smearing, width (Ry)=  0.0200
                       cart. coord. in units 2pi/alat
        k(    1) = (   0.0000000   0.0000000   0.0000000), wk =   0.0800000
        k(    2) = (   0.0000000   0.2309401   0.0000000), wk =   0.1600000
        k(    3) = (   0.0000000   0.4618802   0.0000000), wk =   0.1600000
        k(    4) = (   0.2000000  -0.1154701   0.0000000), wk =   0.1600000
        k(    5) = (   0.2000000   0.1154701   0.0000000), wk =   0.1600000
        k(    6) = (   0.2000000   0.3464102   0.0000000), wk =   0.1600000
        k(    7) = (   0.2000000  -0.5773503   0.0000000), wk =   0.1600000
        k(    8) = (   0.2000000  -0.3464102   0.0000000), wk =   0.1600000
        k(    9) = (   0.4000000  -0.2309401   0.0000000), wk =   0.1600000
        k(   10) = (   0.4000000  -0.0000000   0.0000000), wk =   0.1600000
        k(   11) = (   0.4000000   0.2309401   0.0000000), wk =   0.1600000
        k(   12) = (   0.4000000  -0.6928203   0.0000000), wk =   0.1600000
        k(   13) = (   0.4000000  -0.4618802   0.0000000), wk =   0.1600000

     Check: negative core charge=   -0.000002

     Initial potential from superposition of free atoms

     starting charge  375.99373, renormalised to  376.00000

     negative rho (up, down):  1.145E-02 0.000E+00

     %%%%%%%%%%%%%%%%%%%%%%%%%%%%%%%%%%%%%%%%%%%%%%%%%%%%%%%%%%%%%%%%%%%%%%%%
     %                                                                      %
     % You are using vdW-DF, which was implemented by the Thonhauser group. %
     % Please cite the following two papers that made this development      %
     % possible and the two reviews that describe the various versions:     %
     %                                                                      %
     %   T. Thonhauser et al., PRL 115, 136402 (2015).                      %
     %   T. Thonhauser et al., PRB 76, 125112 (2007).                       %
     %   K. Berland et al., Rep. Prog. Phys. 78, 066501 (2015).             %
     %   D.C. Langreth et al., J. Phys.: Condens. Matter 21, 084203 (2009). %
     %                                                                      %
     %                                                                      %
     % If you are calculating the stress with vdW-DF, please also cite:     %
     %                                                                      %
     %   R. Sabatini et al., J. Phys.: Condens. Matter 24, 424209 (2012).   %
     %                                                                      %
     %%%%%%%%%%%%%%%%%%%%%%%%%%%%%%%%%%%%%%%%%%%%%%%%%%%%%%%%%%%%%%%%%%%%%%%%

     Starting wfcs are  340 randomized atomic wfcs
     Checking if some PAW data can be deallocated...

     Self-consistent Calculation

     iteration #  1     ecut=    60.00 Ry     beta= 0.70
     Davidson diagonalization with overlap
     ethr =  1.00E-02,  avg # of iterations =  2.1

     Threshold (ethr) on eigenvalues was too large:
     Diagonalizing with lowered threshold

     Davidson diagonalization with overlap
     ethr =  9.03E-04,  avg # of iterations =  2.4

[...]

     total energy              =  -27815.77891697 Ry
     estimated scf accuracy    <       3.67665730 Ry

[...]

     iteration #  6     ecut=    60.00 Ry     beta= 0.70
     Davidson diagonalization with overlap
     c_bands:  2 eigenvalues not converged
     ethr =  1.65E-05,  avg # of iterations = 12.4

[...]

     iteration # 10     ecut=    60.00 Ry     beta= 0.70
     Davidson diagonalization with overlap
     c_bands:  1 eigenvalues not converged
     ethr =  5.32E-07,  avg # of iterations = 11.5

[...]

     total energy              =  -27816.13128464 Ry
     estimated scf accuracy    <       0.00000126 Ry

     iteration # 21     ecut=    60.00 Ry     beta= 0.70
     Davidson diagonalization with overlap
     ethr =  3.35E-10,  avg # of iterations =  1.8

[...]

     End of self-consistent calculation

          k = 0.0000 0.0000 0.0000 ( 88865 PWs)   bands (ev):

   -13.8023 -10.7238  -7.5304  -6.6093  -5.8980  -5.3748  -4.6139  -4.2761
    -4.2632  -4.2254  -4.2231  -4.2150  -4.1787  -4.1485  -4.0386  -3.9756
    -3.7678  -3.6888  -3.6674  -3.6533  -3.6178  -3.5895  -3.4426  -3.2532
    -3.2281  -3.2136  -3.1967  -3.1507  -3.0340  -3.0038  -2.9942  -2.9877
    -2.9686  -2.9378  -2.8555  -2.8273  -2.7886  -2.7813  -2.7666  -2.7581
    -2.7348  -2.7047  -2.6875  -2.6758  -2.6668  -2.6552  -2.4026  -2.3022
    -2.1840  -2.1593  -2.1370  -2.1275  -2.1252  -2.0659  -2.0511  -2.0414
    -2.0304  -1.9177  -1.8962  -1.8657  -1.8473  -1.7137  -1.5605  -1.3749
    -1.3585  -1.3438  -1.3214  -1.2950  -1.2542  -1.2323  -1.1767  -1.1707
    -1.1439  -1.1355  -1.1297  -1.1192  -1.1093  -1.0909  -1.0835  -1.0514
    -1.0468  -1.0360  -1.0160  -0.9999  -0.9690  -0.9497  -0.9371  -0.9280
    -0.9006  -0.8686  -0.7810  -0.7678  -0.7333  -0.7082  -0.6795  -0.6693
    -0.6578  -0.6500  -0.6394  -0.5847  -0.5791  -0.5664  -0.5644  -0.5021
    -0.4739  -0.4647  -0.4320  -0.4295  -0.3724  -0.3611  -0.3173  -0.3008
    -0.2660  -0.2266  -0.1569  -0.0173   0.0554   0.0950   0.1311   0.1797
     0.1990   0.2102   0.2346   0.2646   0.3130   0.3224   0.3297   0.3695
     0.3913   0.4162   0.4631   0.4659   0.4892   0.5165   0.5886   0.6041
     0.6596   0.6909   0.7123   0.7157   0.7375   0.8452   0.8800   0.9068
     0.9099   0.9456   0.9639   0.9803   0.9939   1.0250   1.1775   1.1938
     1.2059   1.2176   1.2436   1.2657   1.2745   1.2845   1.3430   1.3770
     1.3920   1.3981   1.4034   1.4123   1.4155   1.4289   1.4474   1.4576
     1.4863   1.4879   1.5069   1.5156   1.5330   1.5866   1.5895   1.6185
     1.6216   1.6364   1.6482   1.6662   1.6990   1.7145   1.7690   1.7710
     1.7719   1.7840   1.7949   1.8133   1.8299   1.8360   1.8876   1.8883
     1.9242   1.9289   2.0410   2.0629   2.1596   2.1783   2.1953   2.2192
     2.2231   2.2474   2.3124   2.5283   2.6033   2.9839   3.0608   3.1030
     3.1119   3.6098   4.2207   4.6360   5.2683   5.3597   5.4149   5.6528
     5.7523   5.9705   6.1167   6.6776   6.7768   6.9993   7.0144   7.0400
     7.0552   7.0716

[...]

          k = 0.4000-0.4619 0.0000 ( 88754 PWs)   bands (ev):

   -13.8017 -10.7249  -7.5145  -5.9036  -5.6712  -5.6275  -5.0510  -4.6442
    -4.5173  -4.2833  -4.0025  -3.9022  -3.8496  -3.7582  -3.7183  -3.6308
    -3.5956  -3.5202  -3.4986  -3.4654  -3.3999  -3.3800  -3.3604  -3.3432
    -3.3194  -3.2976  -3.2310  -3.1894  -3.1567  -3.1535  -3.1253  -3.1054
    -3.0116  -2.9660  -2.9078  -2.8866  -2.8436  -2.8020  -2.7636  -2.7218
    -2.7026  -2.6768  -2.5690  -2.5427  -2.4555  -2.3991  -2.3520  -2.3148
    -2.2622  -2.2375  -2.2000  -2.1292  -2.0818  -2.0472  -1.9895  -1.9656
    -1.9488  -1.9270  -1.9079  -1.8354  -1.8280  -1.7835  -1.7549  -1.7218
    -1.7109  -1.6853  -1.6631  -1.6370  -1.6212  -1.5813  -1.5029  -1.4887
    -1.4282  -1.4226  -1.3514  -1.3380  -1.2834  -1.2648  -1.2242  -1.2063
    -1.1917  -1.1716  -1.1373  -1.0939  -1.0810  -1.0570  -1.0149  -1.0055
    -0.9538  -0.9093  -0.8738  -0.8559  -0.8439  -0.8160  -0.7873  -0.7357
    -0.6886  -0.6713  -0.6620  -0.6157  -0.6015  -0.5787  -0.5639  -0.5464
    -0.5283  -0.5058  -0.4970  -0.4741  -0.4545  -0.4218  -0.4052  -0.3936
    -0.3687  -0.3595  -0.3514  -0.3176  -0.2726  -0.1415  -0.1015  -0.0454
    -0.0386   0.0006   0.0563   0.0633   0.0994   0.1440   0.1650   0.1774
     0.2095   0.2551   0.2626   0.3079   0.3281   0.3548   0.3931   0.4394
     0.4743   0.4898   0.5790   0.6150   0.6393   0.6768   0.7238   0.7509
     0.7719   0.8130   0.8408   0.8806   0.9065   0.9123   0.9391   0.9842
     0.9977   1.0472   1.0654   1.0847   1.1049   1.1512   1.1715   1.2106
     1.2615   1.2869   1.3625   1.4192   1.4543   1.5459   1.5855   1.5994
     1.6382   1.6764   1.7204   1.7660   1.8128   1.8391   1.8885   1.9003
     1.9243   1.9508   1.9707   1.9932   2.0614   2.0720   2.0925   2.1012
     2.1294   2.1406   2.1632   2.2316   2.2769   2.3094   2.3532   2.3682
     2.3883   2.4191   2.4410   2.5393   2.5987   2.7054   3.1002   3.2550
     3.5250   3.5421   3.7442   3.8232   3.8728   3.9509   4.0961   4.3637
     4.5076   4.6256   4.6842   4.8384   5.0448   5.1007   5.1886   5.2810
     5.2992   5.4318   5.5449   5.7978   5.8272   5.9186   6.2478   6.4326
     6.5665   6.6464

     the Fermi energy is     2.1627 ev

!    total energy              =  -27816.13128471 Ry

     total all-electron energy =  -1326876.188980 Ry
     estimated scf accuracy    <       0.00000030 Ry
     smearing contrib. (-TS)   =       0.00119481 Ry
     internal energy E=F+TS    =  -27816.13247951 Ry

     The total energy is F=E-TS. E is the sum of the following terms:
     one-electron contribution =  -27016.57143004 Ry
     hartree contribution      =   13815.82071793 Ry
     xc contribution           =    -907.49965451 Ry
     ewald contribution        =   11785.74721352 Ry
     one-center paw contrib.   =  -25493.62932643 Ry

     convergence has been achieved in  21 iterations

[...]

     Forces acting on atoms (cartesian axes, Ry/au):

     atom    1 type  1   force =    -0.00075957    0.00020293   -0.00690439
     atom    2 type  1   force =     0.00190118    0.00080342   -0.00543922
     atom    3 type  1   force =     0.00065576    0.00025013   -0.00466460
     atom    4 type  1   force =     0.00048986   -0.00027498   -0.00531174
     atom    5 type  1   force =    -0.00078866   -0.00040936   -0.00344925
     atom    6 type  1   force =     0.00121622   -0.00035302   -0.00291493
     atom    7 type  1   force =     0.00048680    0.00075988   -0.00394232
     atom    8 type  1   force =     0.00064541    0.00165000   -0.00334871
     atom    9 type  1   force =     0.00028775    0.00031649   -0.00346641
     atom   10 type  1   force =     0.00202206    0.00298498    0.00358935
     atom   11 type  1   force =    -0.00368788    0.00281663    0.00609326
     atom   12 type  1   force =     0.00351722    0.00177475    0.00415209
     atom   13 type  1   force =    -0.00075311   -0.00479364    0.00582116
     atom   14 type  1   force =    -0.00047861   -0.00037070    0.01321144
     atom   15 type  1   force =    -0.00161657   -0.00370278    0.00612964
     atom   16 type  1   force =     0.00113836    0.00054806    0.00249018
     atom   17 type  1   force =    -0.00271775   -0.00146623    0.00165782
     atom   18 type  1   force =    -0.00048634   -0.00092455   -0.00198149
     atom   19 type  1   force =    -0.00000886    0.00017604   -0.00013303
     atom   20 type  1   force =    -0.00016733   -0.00003937   -0.00042616
     atom   21 type  1   force =     0.00001159   -0.00001722    0.00004591
     atom   22 type  1   force =    -0.00000299   -0.00002990   -0.00016651
     atom   23 type  1   force =     0.00013326    0.00016922    0.00030669
     atom   24 type  1   force =    -0.00013567    0.00010354    0.00014994
     atom   25 type  1   force =    -0.00009139    0.00004141   -0.00024824
     atom   26 type  1   force =    -0.00011753   -0.00003093    0.00018638
     atom   27 type  1   force =     0.00003662    0.00021471   -0.00001471
     atom   28 type  1   force =    -0.00001073    0.00024539    0.00005371
     atom   29 type  1   force =    -0.00032299   -0.00005685    0.00017676
     atom   30 type  1   force =     0.00003932    0.00010481    0.00003428
     atom   31 type  1   force =    -0.00015315    0.00013543    0.00017994
     atom   32 type  1   force =    -0.00049361   -0.00018190   -0.00038856
     atom   33 type  1   force =     0.00040754    0.00030113    0.00000274
     atom   34 type  1   force =    -0.00013945    0.00014696    0.00017366
     atom   35 type  1   force =     0.00048611   -0.00008358    0.00082281
     atom   36 type  1   force =    -0.00019247   -0.00001095    0.00025467
     atom   37 type  2   force =    -0.00016430   -0.00221204   -0.00041668
     atom   38 type  2   force =    -0.00066541    0.00012534   -0.00058012
     atom   39 type  2   force =     0.00486807    0.00137300    0.00200403
     atom   40 type  3   force =    -0.00025545    0.00063602   -0.00051678
     atom   41 type  3   force =    -0.00027096   -0.00005783   -0.00007236
     atom   42 type  3   force =    -0.00099992   -0.00031486   -0.00051333
     atom   43 type  3   force =    -0.00286247   -0.00054957   -0.00263695

     Total force =     0.007473     Total SCF correction =     0.001447
     SCF correction compared to forces is large: reduce conv_thr to get better values

[...]

     negative rho (up, down):  1.278E-02 0.000E+00

     negative rho (up, down):  1.278E-02 0.000E+00
 BEEFens 2000 ensemble energies
             -0.607597759481108E+02
             -0.362086395371068E+01
             -0.158552746937282E+02
              0.429853937788073E+02
             -0.221307072843653E+02
             -0.205472951254937E+02
             -0.352735633231159E+02
             -0.866110598201542E+02
             -0.465389899888639E+02
             -0.472890843596572E+02
             -0.369764920337377E+02
              0.228175791318480E+01
              0.409242837291322E+01
              0.760816963128076E+01
              0.266143239329483E+01
              0.475436033452993E+02
             -0.208957997999373E+02
             -0.230303985405137E+02
              0.193425534398870E+02
             -0.112500244932893E+03
              0.536935009492378E+02
             -0.289934706698084E+02
             -0.334760899675258E+01
             -0.114038544185154E+02
             -0.883495589318568E+01
             -0.463944303989288E+01
              0.883651690723548E+02
             -0.187331204879838E+02
             -0.901383890273780E+01
             -0.519169658256261E+02
              0.816173407373187E+02
             -0.187302718852726E+02
             -0.375457498798958E+02
              0.249416680894788E+02
             -0.283790857523587E+01
              0.164573308174306E+02
             -0.483915953269616E+01
              0.107966292589139E+02
              0.288969517521062E+02
             -0.103372228067634E+03
              0.558905344666810E+02
              0.142534449143515E+02
             -0.172849755359982E+01
             -0.361884178958726E+02
              0.123297401246788E+02
             -0.146866528925037E+02
              0.399031799921802E+02
              0.365137015058858E+02
             -0.308153863745089E+02
             -0.275546655127297E+02
             -0.328871284572749E+02
             -0.352525226269214E+02
              0.136674457048663E+02
             -0.491490107099919E+02
              0.115732661950119E+02
              0.623814641840586E+02
              0.636241730627719E+02
              0.356070086501136E+02
              0.154204554433936E+02
              0.270916736370407E+02
[...]
             -0.706990016678308E+02
             -0.894386637874845E+00
             -0.246932794864581E+01
             -0.883833020532563E+01
             -0.178635397735769E+01
             -0.653405223056562E+02
             -0.210665796879838E+02
              0.541325394564235E+01
              0.901088939060048E+01
              0.469385989448130E+02
             -0.398246778880034E+02
              0.657639968379009E+02
             -0.425617342816832E+02
              0.210681766989535E+02
              0.350767751431183E+02

 BEEF-vdW xc energy contributions
           1 :   -783.566161120946
           2 :    719.904023522162
           3 :   -609.569476470552
           4 :    479.520402514472
           5 :   -357.277137606319
           6 :    262.773147717319
           7 :   -203.777070503012
           8 :    175.809055138369
           9 :   -166.153508714951
          10 :    160.057212642155
          11 :   -146.572740023817
          12 :    121.843205467865
          13 :   -88.9659997276196
          14 :    55.0558426705887
          15 :   -27.2088076724862
          16 :    9.19828704540964
          17 :  -0.187994869913723
          18 :   -4.28443168671060
          19 :    9.77843203264649
          20 :   -20.2122424646794
          21 :    36.1758196122718
          22 :   -54.9575803973868
          23 :    72.0951931875719
          24 :   -83.6044211546572
          25 :    87.7920521987396
          26 :   -85.8567863303950
          27 :    81.1015638727796
          28 :   -77.2344608265674
          29 :    76.6109771295917
          30 :   -79.2476630273804
          31 :   -85.9969122817414
          32 :   -65.9333988719155

     Writing output data file ./pwscf.save/

     General routines

     Parallel routines

   This run was terminated on:  18:41:50  20May2022

   JOB DONE.