     Program PWSCF v.6.7MaX starts on 20May2022 at 14:52:11

     Reading input from c3h5-ensemble.in
Warning: card &CELL ignored
Warning: card / ignored

     Current dimensions of program PWSCF are:
     Max number of different atomic species (ntypx) = 10
     Max number of k-points (npk) =  40000
     Max angular momentum in pseudopotentials (lmaxx) =  3
     file Pt.pbe-n-kjpaw_psl.1.0.0.UPF: wavefunction(s)  6S 5D renormalized
     file C.pbe-n-kjpaw_psl.1.0.0.UPF: wavefunction(s)  2S 2P renormalized
     file H.pbe-kjpaw_psl.1.0.0.UPF: wavefunction(s)  1S renormalized

     IMPORTANT: XC functional enforced from input :
     Exchange-correlation= BEEF-VDW
                           (   1   4  43  14   2   0   0)
     Any further DFT definition will be discarded
     Please, verify this is what you really want

     Subspace diagonalization in iterative solution of the eigenvalue problem:
     a serial algorithm will be used

     bravais-lattice index     =            0
     lattice parameter (alat)  =      16.0349  a.u.
     unit-cell volume          =   11759.8554 (a.u.)^3
     number of atoms/cell      =           44
     number of atomic types    =            3
     number of electrons       =       377.00
     number of Kohn-Sham states=          227
     kinetic-energy cutoff     =      60.0000  Ry
     charge density cutoff     =     240.0000  Ry
     scf convergence threshold =      1.0E-06
     mixing beta               =       0.7000
     number of iterations used =            8  local-TF  mixing
     Exchange-correlation= BEEF-VDW
                           (   1   4  43  14   2   0   0)

     celldm(1)=  16.034858  celldm(2)=   0.000000  celldm(3)=   0.000000
     celldm(4)=   0.000000  celldm(5)=   0.000000  celldm(6)=   0.000000

     crystal axes: (cart. coord. in units of alat)
               a(1) = (   1.000000   0.000000   0.000000 )
               a(2) = (   0.500000   0.866025   0.000000 )
               a(3) = (   0.000000   0.000000   3.293639 )

     reciprocal axes: (cart. coord. in units 2 pi/alat)
               b(1) = (  1.000000 -0.577350  0.000000 )
               b(2) = (  0.000000  1.154701  0.000000 )
               b(3) = (  0.000000  0.000000  0.303616 )

     PseudoPot. # 1 for Pt read from file:
     /users/bkreitz1/quantum-espresso/potentials/Pt.pbe-n-kjpaw_psl.1.0.0.UPF
     MD5 check sum: 04dc8a03c51ece93fc7b5889c2958091
     Pseudo is Projector augmented-wave + core cor, Zval = 10.0
     Generated using 'atomic' code by A. Dal Corso  v.6.7MaX
     Shape of augmentation charge: PSQ
     Using radial grid of 1277 points,  6 beta functions with:
                l(1) =   0
                l(2) =   0
                l(3) =   1
                l(4) =   1
                l(5) =   2
                l(6) =   2
     Q(r) pseudized with 0 coefficients

     PseudoPot. # 2 for C  read from file:
     /users/bkreitz1/quantum-espresso/potentials/C.pbe-n-kjpaw_psl.1.0.0.UPF
     MD5 check sum: a169b0ebad56f5ec0d79c4633f80bf22
     Pseudo is Projector augmented-wave + core cor, Zval =  4.0
     Generated using 'atomic' code by A. Dal Corso  v.6.7MaX
     Shape of augmentation charge: PSQ
     Using radial grid of 1073 points,  4 beta functions with:
                l(1) =   0
                l(2) =   0
                l(3) =   1
                l(4) =   1
     Q(r) pseudized with 0 coefficients

     PseudoPot. # 3 for H  read from file:
     /users/bkreitz1/quantum-espresso/potentials/H.pbe-kjpaw_psl.1.0.0.UPF
     MD5 check sum: ae98473e6dc62675f0d0baffdab24f65
     Pseudo is Projector augmented-wave, Zval =  1.0
     Generated using 'atomic' code by A. Dal Corso  v.6.7MaX
     Shape of augmentation charge: PSQ
     Using radial grid of  929 points,  2 beta functions with:
                l(1) =   0
                l(2) =   0
     Q(r) pseudized with 0 coefficients

     atomic species   valence    mass     pseudopotential
        Pt            10.00   195.08400     Pt( 1.00)
        C              4.00    12.01100     C ( 1.00)
        H              1.00     1.00800     H ( 1.00)

     No symmetry found

   Cartesian axes

     site n.     atom                  positions (alat units)
         1           Pt  tau(   1) = (   0.0000000   0.0000000   1.0017346  )
         2           Pt  tau(   2) = (   0.3333333   0.0000000   1.0017346  )
         3           Pt  tau(   3) = (   0.6666667   0.0000000   1.0017346  )
         4           Pt  tau(   4) = (   0.1666667   0.2886751   1.0017346  )
         5           Pt  tau(   5) = (   0.5000000   0.2886751   1.0017346  )
         6           Pt  tau(   6) = (   0.8333333   0.2886751   1.0017346  )
         7           Pt  tau(   7) = (   0.3333333   0.5773503   1.0017346  )
         8           Pt  tau(   8) = (   0.6666667   0.5773503   1.0017346  )
         9           Pt  tau(   9) = (   1.0000000   0.5773503   1.0017346  )
        10           Pt  tau(  10) = (   0.1666667   0.0962250   1.2739001  )
        11           Pt  tau(  11) = (   0.5000000   0.0962250   1.2739001  )
        12           Pt  tau(  12) = (   0.8333333   0.0962250   1.2739001  )
        13           Pt  tau(  13) = (   0.3333333   0.3849002   1.2739001  )
        14           Pt  tau(  14) = (   0.6666667   0.3849002   1.2739001  )
        15           Pt  tau(  15) = (   1.0000000   0.3849002   1.2739001  )
        16           Pt  tau(  16) = (   0.5000000   0.6735753   1.2739001  )
        17           Pt  tau(  17) = (   0.8333333   0.6735753   1.2739001  )
        18           Pt  tau(  18) = (   1.1666667   0.6735753   1.2739001  )
        19           Pt  tau(  19) = (  -0.0010622   0.1918271   1.5440065  )
        20           Pt  tau(  20) = (   0.3313671   0.1896414   1.5464050  )
        21           Pt  tau(  21) = (   0.6658690   0.1901262   1.5454969  )
        22           Pt  tau(  22) = (   0.1630964   0.4809844   1.5470790  )
        23           Pt  tau(  23) = (   0.4979651   0.4803844   1.5390016  )
        24           Pt  tau(  24) = (   0.8333837   0.4807440   1.5448141  )
        25           Pt  tau(  25) = (   0.3309402   0.7704011   1.5457666  )
        26           Pt  tau(  26) = (   0.6665581   0.7703853   1.5451769  )
        27           Pt  tau(  27) = (   0.9989190   0.7690404   1.5458995  )
        28           Pt  tau(  28) = (  -0.0005322  -0.0002492   1.8189328  )
        29           Pt  tau(  29) = (   0.3338927  -0.0027431   1.8344291  )
        30           Pt  tau(  30) = (   0.6703348   0.0040022   1.8332531  )
        31           Pt  tau(  31) = (   0.1651242   0.2879483   1.8195142  )
        32           Pt  tau(  32) = (   0.4974911   0.2902223   1.8142540  )
        33           Pt  tau(  33) = (   0.8326287   0.2894237   1.8186423  )
        34           Pt  tau(  34) = (   0.3321735   0.5760939   1.8156407  )
        35           Pt  tau(  35) = (   0.6601698   0.5742186   1.8134078  )
        36           Pt  tau(  36) = (   0.9970390   0.5789624   1.8343232  )
        37           C   tau(  37) = (   0.5725191   0.0927726   2.1759337  )
        38           C   tau(  38) = (   0.5904367  -0.0472191   2.0650080  )
        39           C   tau(  39) = (   0.4457101  -0.1288436   2.0121579  )
        40           H   tau(  40) = (   0.6846134   0.1539077   2.1908714  )
        41           H   tau(  41) = (   0.4849015   0.1770425   2.1341228  )
        42           H   tau(  42) = (   0.5348322   0.0494009   2.2919045  )
        43           H   tau(  43) = (   0.6788494  -0.1299717   2.1096189  )
        44           H   tau(  44) = (   0.3621335  -0.1727759   2.1013991  )

     number of k points=    13  Marzari-Vanderbilt smearing, width (Ry)=  0.0200
                       cart. coord. in units 2pi/alat
        k(    1) = (   0.0000000   0.0000000   0.0000000), wk =   0.0800000
        k(    2) = (   0.0000000   0.2309401   0.0000000), wk =   0.1600000
        k(    3) = (   0.0000000   0.4618802   0.0000000), wk =   0.1600000
        k(    4) = (   0.2000000  -0.1154701   0.0000000), wk =   0.1600000
        k(    5) = (   0.2000000   0.1154701   0.0000000), wk =   0.1600000
        k(    6) = (   0.2000000   0.3464102   0.0000000), wk =   0.1600000
        k(    7) = (   0.2000000  -0.5773503   0.0000000), wk =   0.1600000
        k(    8) = (   0.2000000  -0.3464102   0.0000000), wk =   0.1600000
        k(    9) = (   0.4000000  -0.2309401   0.0000000), wk =   0.1600000
        k(   10) = (   0.4000000  -0.0000000   0.0000000), wk =   0.1600000
        k(   11) = (   0.4000000   0.2309401   0.0000000), wk =   0.1600000
        k(   12) = (   0.4000000  -0.6928203   0.0000000), wk =   0.1600000
        k(   13) = (   0.4000000  -0.4618802   0.0000000), wk =   0.1600000

     Check: negative core charge=   -0.000002

     Initial potential from superposition of free atoms

     starting charge  376.99372, renormalised to  377.00000

     negative rho (up, down):  1.192E-02 0.000E+00

     %%%%%%%%%%%%%%%%%%%%%%%%%%%%%%%%%%%%%%%%%%%%%%%%%%%%%%%%%%%%%%%%%%%%%%%%
     %                                                                      %
     % You are using vdW-DF, which was implemented by the Thonhauser group. %
     % Please cite the following two papers that made this development      %
     % possible and the two reviews that describe the various versions:     %
     %                                                                      %
     %   T. Thonhauser et al., PRL 115, 136402 (2015).                      %
     %   T. Thonhauser et al., PRB 76, 125112 (2007).                       %
     %   K. Berland et al., Rep. Prog. Phys. 78, 066501 (2015).             %
     %   D.C. Langreth et al., J. Phys.: Condens. Matter 21, 084203 (2009). %
     %                                                                      %
     %                                                                      %
     % If you are calculating the stress with vdW-DF, please also cite:     %
     %                                                                      %
     %   R. Sabatini et al., J. Phys.: Condens. Matter 24, 424209 (2012).   %
     %                                                                      %
     %%%%%%%%%%%%%%%%%%%%%%%%%%%%%%%%%%%%%%%%%%%%%%%%%%%%%%%%%%%%%%%%%%%%%%%%

     Starting wfcs are  341 randomized atomic wfcs
     Checking if some PAW data can be deallocated...

     Self-consistent Calculation

     iteration #  1     ecut=    60.00 Ry     beta= 0.70
     Davidson diagonalization with overlap
     ethr =  1.00E-02,  avg # of iterations =  2.6

     Threshold (ethr) on eigenvalues was too large:
     Diagonalizing with lowered threshold

     Davidson diagonalization with overlap
     ethr =  8.92E-04,  avg # of iterations =  2.3

[...]

     total energy              =  -27817.08677322 Ry
     estimated scf accuracy    <       3.64482260 Ry

[...]

     iteration #  6     ecut=    60.00 Ry     beta= 0.70
     Davidson diagonalization with overlap
     c_bands:  2 eigenvalues not converged
     c_bands:  2 eigenvalues not converged
     c_bands:  3 eigenvalues not converged
     c_bands:  2 eigenvalues not converged
     ethr =  1.51E-05,  avg # of iterations = 12.1

[...]

     total energy              =  -27817.38533483 Ry
     estimated scf accuracy    <       0.00000218 Ry

     iteration # 21     ecut=    60.00 Ry     beta= 0.70
     Davidson diagonalization with overlap
     ethr =  5.77E-10,  avg # of iterations =  1.5

[...]

     End of self-consistent calculation

          k = 0.0000 0.0000 0.0000 ( 92411 PWs)   bands (ev):

   -13.4963 -10.7744  -7.9305  -6.9438  -5.8112  -5.4429  -4.9135  -4.5742
    -4.5569  -4.5388  -4.5232  -4.5080  -4.5011  -4.4818  -4.3557  -4.1191
    -4.0173  -3.9902  -3.9746  -3.9638  -3.9332  -3.9223  -3.6527  -3.5482
    -3.5248  -3.5185  -3.5033  -3.4536  -3.3747  -3.3098  -3.3049  -3.2920
    -3.2631  -3.2356  -3.1804  -3.1252  -3.1051  -3.0901  -3.0832  -3.0755
    -3.0253  -3.0230  -3.0193  -3.0114  -2.9826  -2.9745  -2.7776  -2.5758
    -2.5448  -2.4744  -2.4575  -2.4540  -2.4174  -2.4126  -2.3907  -2.3712
    -2.3570  -2.2211  -2.2141  -2.1761  -2.1609  -2.1402  -1.7843  -1.7534
    -1.6959  -1.6481  -1.6379  -1.6333  -1.5847  -1.5246  -1.5032  -1.4779
    -1.4533  -1.4419  -1.4366  -1.4333  -1.4323  -1.4083  -1.4022  -1.3988
    -1.3805  -1.3690  -1.3552  -1.3327  -1.3163  -1.3020  -1.2537  -1.2410
    -1.2373  -1.1882  -1.0898  -1.0431  -1.0385  -1.0215  -1.0094  -0.9906
    -0.9770  -0.9708  -0.9161  -0.9057  -0.8974  -0.8638  -0.8494  -0.8286
    -0.8085  -0.7979  -0.7866  -0.7645  -0.7626  -0.7574  -0.6289  -0.6021
    -0.5838  -0.5679  -0.4915  -0.4352  -0.3236  -0.1543  -0.1475  -0.1349
    -0.1094  -0.1067  -0.1038  -0.1016  -0.0234   0.0108   0.0220   0.0473
     0.0738   0.0845   0.1421   0.1526   0.1788   0.1858   0.1984   0.2503
     0.2767   0.3269   0.3760   0.3824   0.3998   0.4220   0.5940   0.6030
     0.6071   0.6378   0.6405   0.6580   0.6822   0.6872   0.7391   0.8736
     0.8819   0.8888   0.9324   0.9423   0.9863   0.9951   1.0334   1.0366
     1.0589   1.0605   1.0761   1.0792   1.0925   1.0938   1.1140   1.1217
     1.1302   1.1624   1.1727   1.1894   1.1995   1.2103   1.2595   1.2634
     1.3094   1.3127   1.3148   1.3407   1.3521   1.3841   1.4215   1.4361
     1.4382   1.4528   1.4560   1.4612   1.4830   1.5014   1.5221   1.5579
     1.5788   1.5921   1.5968   1.7245   1.7512   1.8474   1.8599   1.8653
     1.8819   1.8838   1.9117   2.2123   2.2700   2.4669   2.6990   2.7397
     2.7822   2.7886   3.6425   3.9747   4.4703   5.0390   5.0462   5.0634
     5.5342   5.6547   5.7343   6.3329   6.4868   6.6891   6.7029   6.7099
     6.7317   6.7533   6.8095

[...]

          k = 0.4000-0.4619 0.0000 ( 92300 PWs)   bands (ev):

   -13.4957 -10.7735  -7.9301  -5.9948  -5.9821  -5.5628  -5.3470  -4.9567
    -4.7732  -4.5603  -4.2736  -4.1859  -4.0892  -4.0582  -4.0129  -3.9218
    -3.9083  -3.8238  -3.7941  -3.7295  -3.6968  -3.6838  -3.6753  -3.6468
    -3.6224  -3.5921  -3.5513  -3.4862  -3.4742  -3.4583  -3.4377  -3.4164
    -3.3650  -3.2605  -3.2241  -3.1879  -3.1341  -3.1128  -3.0741  -3.0410
    -3.0214  -3.0039  -2.8796  -2.8489  -2.8298  -2.6919  -2.6657  -2.6418
    -2.6147  -2.5628  -2.4941  -2.4514  -2.3988  -2.3404  -2.3142  -2.2870
    -2.2538  -2.2380  -2.1888  -2.1725  -2.1334  -2.0868  -2.0655  -2.0408
    -2.0163  -2.0075  -1.9885  -1.9677  -1.9207  -1.8998  -1.8415  -1.7997
    -1.7616  -1.7195  -1.6905  -1.6495  -1.6101  -1.5825  -1.5623  -1.5303
    -1.5177  -1.4955  -1.4688  -1.4480  -1.4119  -1.3883  -1.3497  -1.3388
    -1.3108  -1.2592  -1.1937  -1.1819  -1.1623  -1.1552  -1.1323  -1.0376
    -1.0191  -0.9910  -0.9635  -0.9456  -0.9190  -0.9039  -0.8859  -0.8661
    -0.8599  -0.8367  -0.8213  -0.8020  -0.7773  -0.7412  -0.7257  -0.7226
    -0.7072  -0.6997  -0.6843  -0.6300  -0.6074  -0.4855  -0.4617  -0.3858
    -0.3581  -0.3307  -0.2733  -0.2421  -0.2324  -0.1879  -0.1708  -0.1423
    -0.1279  -0.0938  -0.0522  -0.0363   0.0006   0.0306   0.0495   0.0850
     0.1427   0.1707   0.2326   0.2578   0.3222   0.3434   0.4048   0.4331
     0.4531   0.4735   0.5022   0.5352   0.5736   0.5922   0.6091   0.6226
     0.6498   0.6883   0.7190   0.7669   0.7845   0.7989   0.8363   0.8519
     0.8870   0.9551   0.9885   1.0843   1.1178   1.1625   1.2356   1.2716
     1.2963   1.3326   1.3689   1.3955   1.4666   1.4862   1.5514   1.5683
     1.5860   1.6061   1.6263   1.6514   1.6761   1.7476   1.7608   1.7672
     1.7912   1.8030   1.8236   1.8281   1.9127   1.9597   2.0036   2.0385
     2.0546   2.0672   2.1028   2.1200   2.2262   2.3279   2.7660   2.8361
     3.1127   3.2125   3.2582   3.4661   3.5521   3.5726   3.6792   3.8805
     4.1504   4.2318   4.2548   4.3722   4.6791   4.7591   4.7994   4.8798
     4.9912   5.1009   5.1690   5.2782   5.5074   5.6045   5.6751   6.0657
     6.2219   6.2964   6.3584

     the Fermi energy is     1.8325 ev

!    total energy              =  -27817.38533426 Ry

     total all-electron energy =  -1326877.443025 Ry
     estimated scf accuracy    <       0.00000079 Ry
     smearing contrib. (-TS)   =       0.00203254 Ry
     internal energy E=F+TS    =  -27817.38736680 Ry

     The total energy is F=E-TS. E is the sum of the following terms:
     one-electron contribution =  -29169.94628282 Ry
     hartree contribution      =   14888.65799787 Ry
     xc contribution           =    -908.22722350 Ry
     ewald contribution        =   12865.73439700 Ry
     one-center paw contrib.   =  -25493.60625534 Ry

     convergence has been achieved in  21 iterations

[...]

     Forces acting on atoms (cartesian axes, Ry/au):

     atom    1 type  1   force =     0.00018644   -0.00073898   -0.00367809
     atom    2 type  1   force =     0.00005585   -0.00007159   -0.00374889
     atom    3 type  1   force =     0.00034011    0.00022630   -0.00442724
     atom    4 type  1   force =     0.00051697    0.00038310   -0.00301159
     atom    5 type  1   force =     0.00104906   -0.00162255   -0.00487790
     atom    6 type  1   force =    -0.00034672    0.00035518   -0.00373269
     atom    7 type  1   force =    -0.00085097    0.00149438   -0.00494235
     atom    8 type  1   force =     0.00125180    0.00085421   -0.00579479
     atom    9 type  1   force =     0.00000772    0.00002286   -0.00370526
     atom   10 type  1   force =     0.00039486   -0.00023258    0.00873859
     atom   11 type  1   force =    -0.00102087    0.00110941    0.00792599
     atom   12 type  1   force =    -0.00124379   -0.00071970    0.00870298
     atom   13 type  1   force =    -0.00172190   -0.00050296   -0.00300732
     atom   14 type  1   force =     0.00008923    0.00008210   -0.00396647
     atom   15 type  1   force =     0.00034497    0.00065254    0.00882843
     atom   16 type  1   force =     0.00005652   -0.00008874   -0.00266325
     atom   17 type  1   force =    -0.00216145   -0.00125103    0.00516487
     atom   18 type  1   force =     0.00075745   -0.00190112    0.00853299
     atom   19 type  1   force =    -0.00005091    0.00009507   -0.00013277
     atom   20 type  1   force =    -0.00001031   -0.00008143    0.00055275
     atom   21 type  1   force =     0.00002637   -0.00000450    0.00050437
     atom   22 type  1   force =    -0.00013313    0.00019766    0.00039630
     atom   23 type  1   force =    -0.00004934    0.00005131   -0.00033811
     atom   24 type  1   force =     0.00001040    0.00015423    0.00020561
     atom   25 type  1   force =    -0.00012341    0.00013681    0.00045208
     atom   26 type  1   force =     0.00010993    0.00012216    0.00026249
     atom   27 type  1   force =     0.00009117    0.00024771    0.00062479
     atom   28 type  1   force =     0.00013365    0.00010345   -0.00018996
     atom   29 type  1   force =    -0.00005607    0.00028039    0.00067437
     atom   30 type  1   force =     0.00019873    0.00027178    0.00077827
     atom   31 type  1   force =     0.00020380    0.00019130   -0.00016437
     atom   32 type  1   force =     0.00004548    0.00009039   -0.00026685
     atom   33 type  1   force =    -0.00009600    0.00013335   -0.00010082
     atom   34 type  1   force =     0.00005225    0.00025402   -0.00010590
     atom   35 type  1   force =     0.00002917    0.00023445   -0.00014500
     atom   36 type  1   force =     0.00021807    0.00007093    0.00052927
     atom   37 type  2   force =     0.00060225   -0.00020673   -0.00095893
     atom   38 type  2   force =     0.00010956    0.00029469   -0.00187114
     atom   39 type  2   force =    -0.00399660   -0.00250800    0.00584226
     atom   40 type  3   force =     0.00044046   -0.00047394    0.00014619
     atom   41 type  3   force =    -0.00024736   -0.00007153   -0.00019679
     atom   42 type  3   force =     0.00000959   -0.00039886    0.00005616
     atom   43 type  3   force =     0.00003594    0.00016338   -0.00019720
     atom   44 type  3   force =     0.00474105    0.00260106   -0.00669507

     Total force =     0.011831     Total SCF correction =     0.003821
     SCF correction compared to forces is large: reduce conv_thr to get better values

[...]

     negative rho (up, down):  1.336E-02 0.000E+00

     negative rho (up, down):  1.336E-02 0.000E+00
 BEEFens 2000 ensemble energies
             -0.608146262655098E+02
             -0.362154945520243E+01
             -0.158598285813403E+02
              0.430359941972729E+02
             -0.221567486888156E+02
             -0.205537204993811E+02
             -0.353270657995272E+02
             -0.867008316308583E+02
             -0.465489177465952E+02
             -0.473227049339837E+02
             -0.370093137739187E+02
              0.229154472006206E+01
              0.408459002889225E+01
              0.759750024169290E+01
              0.266726341819182E+01
              0.475878881996429E+02
             -0.209091549601207E+02
             -0.230168338184380E+02
              0.193641710672528E+02
             -0.112596026664547E+03
              0.537444600761221E+02
             -0.290138470411239E+02
             -0.336264636230195E+01
             -0.114202894140568E+02
             -0.881444893785181E+01
             -0.462877891045639E+01
              0.884412729377698E+02
             -0.187853640218896E+02
             -0.900944921415442E+01
             -0.519610320035868E+02
              0.816581083252081E+02
             -0.187128119353141E+02
             -0.375829975195323E+02
              0.249416862759293E+02
             -0.285033472481189E+01
              0.164920220489033E+02
             -0.483683163653575E+01
              0.107896016986186E+02
              0.289430132987983E+02
             -0.103447683306062E+03
              0.559524996118482E+02
              0.142635889403513E+02
             -0.176219076841585E+01
             -0.361984044483419E+02
              0.123471788515253E+02
             -0.147289002227361E+02
              0.399563648074820E+02
              0.365398985811099E+02
             -0.308262932882242E+02
             -0.275790227045875E+02
             -0.329200764648940E+02
             -0.352926321970204E+02
              0.137023216244098E+02
             -0.491867830563845E+02
              0.115975640626759E+02
              0.624258501504292E+02
              0.637028833822770E+02
              0.356416928805208E+02
              0.154266703296121E+02
              0.271310629711189E+02
[...]
             -0.707742368027114E+02
             -0.863246742099705E+00
             -0.246857146082525E+01
             -0.884831373450095E+01
             -0.180000167463277E+01
             -0.654007627188364E+02
             -0.210605284903994E+02
              0.542848424345379E+01
              0.903714797239630E+01
              0.469935510939443E+02
             -0.398689629279906E+02
              0.657910124503121E+02
             -0.426017570205419E+02
              0.211060970856938E+02
              0.351202212757374E+02

 BEEF-vdW xc energy contributions
           1 :   -784.117732164997
           2 :    720.230914355843
           3 :   -609.615579335784
           4 :    479.392782468446
           5 :   -357.137260639442
           6 :    262.738228943556
           7 :   -203.876937915470
           8 :    175.994737405837
           9 :   -166.338182431867
          10 :    160.166038864660
          11 :   -146.578910969819
          12 :    121.775106427653
          13 :   -88.8874059320882
          14 :    55.0301162568946
          15 :   -27.2638217085976
          16 :    9.31123532970832
          17 :  -0.295606343502641
          18 :   -4.25518540793587
          19 :    9.87501268979884
          20 :   -20.4352940019581
          21 :    36.4789088484093
          22 :   -55.2666459981551
          23 :    72.3415587044791
          24 :   -83.7546513090878
          25 :    87.8591083378716
          26 :   -85.8890918846243
          27 :    81.1566742850785
          28 :   -77.3501787340043
          29 :    76.7870264967113
          30 :   -79.4429029818029
          31 :   -86.0910222448563
          32 :   -65.9663488002379

     Writing output data file ./pwscf.save/

     General routines

     Parallel routines

   This run was terminated on:  18:57: 1  20May2022

   JOB DONE.