     Program PWSCF v.6.7MaX starts on 20May2022 at 14:53: 4

     Reading input from c3h6-ensemble.in
Warning: card &CELL ignored
Warning: card / ignored

     Current dimensions of program PWSCF are:
     Max number of different atomic species (ntypx) = 10
     Max number of k-points (npk) =  40000
     Max angular momentum in pseudopotentials (lmaxx) =  3
     file Pt.pbe-n-kjpaw_psl.1.0.0.UPF: wavefunction(s)  6S 5D renormalized
     file C.pbe-n-kjpaw_psl.1.0.0.UPF: wavefunction(s)  2S 2P renormalized
     file H.pbe-kjpaw_psl.1.0.0.UPF: wavefunction(s)  1S renormalized

     IMPORTANT: XC functional enforced from input :
     Exchange-correlation= BEEF-VDW
                           (   1   4  43  14   2   0   0)
     Any further DFT definition will be discarded
     Please, verify this is what you really want

     Subspace diagonalization in iterative solution of the eigenvalue problem:
     a serial algorithm will be used

     bravais-lattice index     =            0
     lattice parameter (alat)  =      16.0349  a.u.
     unit-cell volume          =   11811.5707 (a.u.)^3
     number of atoms/cell      =           45
     number of atomic types    =            3
     number of electrons       =       378.00
     number of Kohn-Sham states=          227
     kinetic-energy cutoff     =      60.0000  Ry
     charge density cutoff     =     240.0000  Ry
     scf convergence threshold =      1.0E-06
     mixing beta               =       0.7000
     number of iterations used =            8  local-TF  mixing
     Exchange-correlation= BEEF-VDW
                           (   1   4  43  14   2   0   0)

     celldm(1)=  16.034858  celldm(2)=   0.000000  celldm(3)=   0.000000
     celldm(4)=   0.000000  celldm(5)=   0.000000  celldm(6)=   0.000000

     crystal axes: (cart. coord. in units of alat)
               a(1) = (   1.000000   0.000000   0.000000 )
               a(2) = (   0.500000   0.866025   0.000000 )
               a(3) = (   0.000000   0.000000   3.308123 )

     reciprocal axes: (cart. coord. in units 2 pi/alat)
               b(1) = (  1.000000 -0.577350  0.000000 )
               b(2) = (  0.000000  1.154701  0.000000 )
               b(3) = (  0.000000  0.000000  0.302286 )

     PseudoPot. # 1 for Pt read from file:
     /users/bkreitz1/quantum-espresso/potentials/Pt.pbe-n-kjpaw_psl.1.0.0.UPF
     MD5 check sum: 04dc8a03c51ece93fc7b5889c2958091
     Pseudo is Projector augmented-wave + core cor, Zval = 10.0
     Generated using 'atomic' code by A. Dal Corso  v.6.7MaX
     Shape of augmentation charge: PSQ
     Using radial grid of 1277 points,  6 beta functions with:
                l(1) =   0
                l(2) =   0
                l(3) =   1
                l(4) =   1
                l(5) =   2
                l(6) =   2
     Q(r) pseudized with 0 coefficients

     PseudoPot. # 2 for C  read from file:
     /users/bkreitz1/quantum-espresso/potentials/C.pbe-n-kjpaw_psl.1.0.0.UPF
     MD5 check sum: a169b0ebad56f5ec0d79c4633f80bf22
     Pseudo is Projector augmented-wave + core cor, Zval =  4.0
     Generated using 'atomic' code by A. Dal Corso  v.6.7MaX
     Shape of augmentation charge: PSQ
     Using radial grid of 1073 points,  4 beta functions with:
                l(1) =   0
                l(2) =   0
                l(3) =   1
                l(4) =   1
     Q(r) pseudized with 0 coefficients

     PseudoPot. # 3 for H  read from file:
     /users/bkreitz1/quantum-espresso/potentials/H.pbe-kjpaw_psl.1.0.0.UPF
     MD5 check sum: ae98473e6dc62675f0d0baffdab24f65
     Pseudo is Projector augmented-wave, Zval =  1.0
     Generated using 'atomic' code by A. Dal Corso  v.6.7MaX
     Shape of augmentation charge: PSQ
     Using radial grid of  929 points,  2 beta functions with:
                l(1) =   0
                l(2) =   0
     Q(r) pseudized with 0 coefficients

     atomic species   valence    mass     pseudopotential
        Pt            10.00   195.08400     Pt( 1.00)
        C              4.00    12.01100     C ( 1.00)
        H              1.00     1.00800     H ( 1.00)

     No symmetry found

   Cartesian axes

     site n.     atom                  positions (alat units)
         1           Pt  tau(   1) = (   0.0000000   0.0000000   1.0017346  )
         2           Pt  tau(   2) = (   0.3333333   0.0000000   1.0017346  )
         3           Pt  tau(   3) = (   0.6666667   0.0000000   1.0017346  )
         4           Pt  tau(   4) = (   0.1666667   0.2886751   1.0017346  )
         5           Pt  tau(   5) = (   0.5000000   0.2886751   1.0017346  )
         6           Pt  tau(   6) = (   0.8333333   0.2886751   1.0017346  )
         7           Pt  tau(   7) = (   0.3333333   0.5773503   1.0017346  )
         8           Pt  tau(   8) = (   0.6666667   0.5773503   1.0017346  )
         9           Pt  tau(   9) = (   1.0000000   0.5773503   1.0017346  )
        10           Pt  tau(  10) = (   0.1666667   0.0962250   1.2739001  )
        11           Pt  tau(  11) = (   0.5000000   0.0962250   1.2739001  )
        12           Pt  tau(  12) = (   0.8333333   0.0962250   1.2739001  )
        13           Pt  tau(  13) = (   0.3333333   0.3849002   1.2739001  )
        14           Pt  tau(  14) = (   0.6666667   0.3849002   1.2739001  )
        15           Pt  tau(  15) = (   1.0000000   0.3849002   1.2739001  )
        16           Pt  tau(  16) = (   0.5000000   0.6735753   1.2739001  )
        17           Pt  tau(  17) = (   0.8333333   0.6735753   1.2739001  )
        18           Pt  tau(  18) = (   1.1666667   0.6735753   1.2739001  )
        19           Pt  tau(  19) = (  -0.0044075   0.1940125   1.5487411  )
        20           Pt  tau(  20) = (   0.3320918   0.1918634   1.5400218  )
        21           Pt  tau(  21) = (   0.6694321   0.1939794   1.5495479  )
        22           Pt  tau(  22) = (   0.1654366   0.4810812   1.5418387  )
        23           Pt  tau(  23) = (   0.4991937   0.4812023   1.5412207  )
        24           Pt  tau(  24) = (   0.8326118   0.4777708   1.5487764  )
        25           Pt  tau(  25) = (   0.3322873   0.7696978   1.5418170  )
        26           Pt  tau(  26) = (   0.6659251   0.7697197   1.5407384  )
        27           Pt  tau(  27) = (   0.9992588   0.7697310   1.5412229  )
        28           Pt  tau(  28) = (  -0.0006829  -0.0037386   1.8141008  )
        29           Pt  tau(  29) = (   0.3315852  -0.0011537   1.8166565  )
        30           Pt  tau(  30) = (   0.6635486  -0.0032334   1.8160807  )
        31           Pt  tau(  31) = (   0.1676890   0.2878778   1.8131233  )
        32           Pt  tau(  32) = (   0.4950130   0.2876567   1.8112773  )
        33           Pt  tau(  33) = (   0.8310498   0.2870469   1.8563023  )
        34           Pt  tau(  34) = (   0.3308901   0.5768206   1.8167791  )
        35           Pt  tau(  35) = (   0.6636971   0.5789795   1.8141350  )
        36           Pt  tau(  36) = (   0.9986913   0.5785192   1.8160608  )
        37           C   tau(  37) = (   0.6226799   0.2647480   2.1785273  )
        38           C   tau(  38) = (   0.7711713   0.3360405   2.1129878  )
        39           C   tau(  39) = (   0.9134946   0.2516059   2.1006503  )
        40           H   tau(  40) = (   0.5169720   0.3207511   2.1311226  )
        41           H   tau(  41) = (   0.6160615   0.1381286   2.1576191  )
        42           H   tau(  42) = (   0.6226297   0.2850411   2.3063886  )
        43           H   tau(  43) = (   0.7794529   0.4634961   2.1224826  )
        44           H   tau(  44) = (   1.0252203   0.3125530   2.1117191  )
        45           H   tau(  45) = (   0.9156705   0.1268911   2.1298101  )

     number of k points=    13  Marzari-Vanderbilt smearing, width (Ry)=  0.0200
                       cart. coord. in units 2pi/alat
        k(    1) = (   0.0000000   0.0000000   0.0000000), wk =   0.0800000
        k(    2) = (   0.0000000   0.2309401   0.0000000), wk =   0.1600000
        k(    3) = (   0.0000000   0.4618802   0.0000000), wk =   0.1600000
        k(    4) = (   0.2000000  -0.1154701   0.0000000), wk =   0.1600000
        k(    5) = (   0.2000000   0.1154701   0.0000000), wk =   0.1600000
        k(    6) = (   0.2000000   0.3464102   0.0000000), wk =   0.1600000
        k(    7) = (   0.2000000  -0.5773503   0.0000000), wk =   0.1600000
        k(    8) = (   0.2000000  -0.3464102   0.0000000), wk =   0.1600000
        k(    9) = (   0.4000000  -0.2309401   0.0000000), wk =   0.1600000
        k(   10) = (   0.4000000  -0.0000000   0.0000000), wk =   0.1600000
        k(   11) = (   0.4000000   0.2309401   0.0000000), wk =   0.1600000
        k(   12) = (   0.4000000  -0.6928203   0.0000000), wk =   0.1600000
        k(   13) = (   0.4000000  -0.4618802   0.0000000), wk =   0.1600000

     Check: negative core charge=   -0.000002

     Initial potential from superposition of free atoms

     starting charge  377.99371, renormalised to  378.00000

     negative rho (up, down):  1.137E-02 0.000E+00

     %%%%%%%%%%%%%%%%%%%%%%%%%%%%%%%%%%%%%%%%%%%%%%%%%%%%%%%%%%%%%%%%%%%%%%%%
     %                                                                      %
     % You are using vdW-DF, which was implemented by the Thonhauser group. %
     % Please cite the following two papers that made this development      %
     % possible and the two reviews that describe the various versions:     %
     %                                                                      %
     %   T. Thonhauser et al., PRL 115, 136402 (2015).                      %
     %   T. Thonhauser et al., PRB 76, 125112 (2007).                       %
     %   K. Berland et al., Rep. Prog. Phys. 78, 066501 (2015).             %
     %   D.C. Langreth et al., J. Phys.: Condens. Matter 21, 084203 (2009). %
     %                                                                      %
     %                                                                      %
     % If you are calculating the stress with vdW-DF, please also cite:     %
     %                                                                      %
     %   R. Sabatini et al., J. Phys.: Condens. Matter 24, 424209 (2012).   %
     %                                                                      %
     %%%%%%%%%%%%%%%%%%%%%%%%%%%%%%%%%%%%%%%%%%%%%%%%%%%%%%%%%%%%%%%%%%%%%%%%

     Starting wfcs are  342 randomized atomic wfcs
     Checking if some PAW data can be deallocated...

     Self-consistent Calculation

     iteration #  1     ecut=    60.00 Ry     beta= 0.70
     Davidson diagonalization with overlap
     ethr =  1.00E-02,  avg # of iterations =  2.4

     Threshold (ethr) on eigenvalues was too large:
     Diagonalizing with lowered threshold

     Davidson diagonalization with overlap
     ethr =  8.15E-04,  avg # of iterations =  2.6

[...]

     total energy              =  -27818.36181217 Ry
     estimated scf accuracy    <       3.33224130 Ry

[...]

     iteration #  6     ecut=    60.00 Ry     beta= 0.70
     Davidson diagonalization with overlap
     c_bands:  1 eigenvalues not converged
     c_bands:  2 eigenvalues not converged
     c_bands:  1 eigenvalues not converged
     ethr =  1.44E-05,  avg # of iterations = 12.5

[...]

     iteration # 11     ecut=    60.00 Ry     beta= 0.70
     Davidson diagonalization with overlap
     c_bands:  2 eigenvalues not converged
     c_bands:  1 eigenvalues not converged
     ethr =  4.57E-07,  avg # of iterations =  5.2

[...]

     total energy              =  -27818.62303675 Ry
     estimated scf accuracy    <       0.00000162 Ry

     iteration # 20     ecut=    60.00 Ry     beta= 0.70
     Davidson diagonalization with overlap
     ethr =  4.29E-10,  avg # of iterations =  3.4

[...]

     End of self-consistent calculation

          k = 0.0000 0.0000 0.0000 ( 92795 PWs)   bands (ev):

   -13.9633 -11.1852  -8.0683  -6.8904  -5.7437  -5.6106  -4.7486  -4.6058
    -4.5007  -4.4901  -4.4879  -4.4741  -4.4408  -4.4334  -4.4156  -4.1720
    -3.9369  -3.9273  -3.9192  -3.9015  -3.8981  -3.8875  -3.4846  -3.4699
    -3.4585  -3.4477  -3.4377  -3.4100  -3.3155  -3.2461  -3.2394  -3.2368
    -3.2300  -3.2071  -3.1792  -3.0302  -3.0217  -3.0134  -3.0079  -3.0008
    -2.9903  -2.9843  -2.9808  -2.9480  -2.9348  -2.9264  -2.9202  -2.6461
    -2.3981  -2.3912  -2.3692  -2.3637  -2.3460  -2.3233  -2.3058  -2.2956
    -2.2949  -2.2811  -2.1783  -2.1501  -2.1090  -2.0754  -1.8719  -1.6458
    -1.5837  -1.5713  -1.5627  -1.5534  -1.5447  -1.4850  -1.4334  -1.4230
    -1.3925  -1.3893  -1.3680  -1.3621  -1.3586  -1.3401  -1.3355  -1.3166
    -1.3087  -1.3071  -1.2860  -1.2807  -1.2463  -1.1733  -1.1704  -1.1556
    -1.1456  -1.1402  -1.0166  -1.0139  -0.9956  -0.9926  -0.9505  -0.9422
    -0.9380  -0.9221  -0.8969  -0.8685  -0.8667  -0.7936  -0.7910  -0.7333
    -0.7201  -0.7198  -0.6805  -0.6780  -0.6393  -0.5955  -0.5838  -0.5422
    -0.5277  -0.5093  -0.5068  -0.2663  -0.1775  -0.1418  -0.0833  -0.0616
    -0.0422  -0.0409  -0.0272   0.0124   0.0332   0.0406   0.0460   0.0931
     0.1124   0.1470   0.2342   0.2632   0.2641   0.2712   0.3356   0.3446
     0.3573   0.3873   0.4516   0.4636   0.4785   0.4813   0.6121   0.6508
     0.6969   0.7013   0.7094   0.7428   0.7734   0.7783   0.9333   0.9444
     0.9552   0.9829   0.9938   1.0118   1.0867   1.0930   1.1186   1.1217
     1.1349   1.1558   1.1583   1.1668   1.1701   1.1801   1.1990   1.2460
     1.2560   1.2692   1.2788   1.2881   1.3023   1.3386   1.3592   1.3787
     1.3826   1.3909   1.3996   1.4067   1.4378   1.4547   1.4649   1.4678
     1.5296   1.5318   1.5489   1.5617   1.5671   1.5883   1.5997   1.6478
     1.6498   1.6524   1.6868   1.6900   1.8436   1.8561   1.9458   1.9510
     1.9888   1.9927   1.9960   2.0212   2.0793   2.7627   2.8287   2.8492
     2.8582   2.8630   2.8987   3.6408   4.9084   5.1146   5.1457   5.1783
     5.2008   5.2754   5.5947   5.8246   6.4255   6.7114   6.7336   6.7714
     6.7856   6.8101   6.8605

[...]

          k = 0.4000-0.4619 0.0000 ( 92692 PWs)   bands (ev):

   -13.9630 -11.1865  -8.0676  -5.9428  -5.9045  -5.7258  -5.3153  -4.8204
    -4.7005  -4.6179  -4.3254  -4.1467  -4.1033  -4.0161  -3.9793  -3.8736
    -3.8641  -3.7704  -3.7528  -3.6830  -3.6542  -3.6284  -3.6175  -3.5950
    -3.5644  -3.5482  -3.4614  -3.4311  -3.4245  -3.3920  -3.3781  -3.3038
    -3.2621  -3.2148  -3.1706  -3.1305  -3.0544  -3.0359  -3.0223  -3.0050
    -2.9740  -2.9232  -2.8966  -2.7999  -2.7616  -2.6925  -2.6071  -2.5754
    -2.5518  -2.4681  -2.4465  -2.4149  -2.3885  -2.2892  -2.2337  -2.2060
    -2.1875  -2.1660  -2.1406  -2.1051  -2.0896  -2.0417  -1.9881  -1.9650
    -1.9565  -1.9393  -1.9360  -1.9242  -1.8962  -1.8595  -1.8174  -1.7326
    -1.6911  -1.6842  -1.6501  -1.5609  -1.5331  -1.4979  -1.4832  -1.4737
    -1.4460  -1.4337  -1.4069  -1.3336  -1.3186  -1.2917  -1.2665  -1.2540
    -1.2165  -1.1804  -1.1507  -1.1163  -1.0965  -1.0753  -1.0202  -0.9799
    -0.9418  -0.9093  -0.8967  -0.8791  -0.8576  -0.8391  -0.8177  -0.8016
    -0.7877  -0.7726  -0.7415  -0.7279  -0.6941  -0.6889  -0.6724  -0.6648
    -0.6493  -0.6270  -0.6153  -0.5806  -0.5689  -0.5402  -0.3735  -0.3556
    -0.2979  -0.2648  -0.2237  -0.1650  -0.1459  -0.1071  -0.0872  -0.0716
    -0.0363  -0.0109   0.0083   0.0565   0.0653   0.1014   0.1305   0.1532
     0.2217   0.2442   0.2804   0.3502   0.3885   0.4453   0.4942   0.5121
     0.5423   0.5684   0.6037   0.6326   0.6522   0.6609   0.6888   0.7267
     0.7420   0.7861   0.8178   0.8629   0.8927   0.9078   0.9115   0.9405
     0.9523   1.0252   1.0738   1.1286   1.1877   1.2593   1.3101   1.3492
     1.3656   1.4122   1.4825   1.4896   1.5145   1.5869   1.6160   1.6560
     1.6818   1.6987   1.7100   1.7244   1.7461   1.7844   1.8487   1.8618
     1.8706   1.9003   1.9182   1.9219   1.9361   1.9966   2.0879   2.1024
     2.1356   2.1475   2.1628   2.1852   2.2170   2.3278   2.4285   2.5208
     3.2720   3.2907   3.4309   3.5303   3.5564   3.6356   3.6632   3.7727
     4.2028   4.2571   4.2947   4.4182   4.7594   4.7946   4.8408   4.8897
     5.0429   5.1685   5.2091   5.3584   5.5310   5.6574   5.7541   6.0170
     6.1990   6.3101   6.3759

     the Fermi energy is     1.9161 ev

!    total energy              =  -27818.62303679 Ry

     total all-electron energy =  -1326878.680723 Ry
     estimated scf accuracy    <       0.00000082 Ry
     smearing contrib. (-TS)   =       0.00138131 Ry
     internal energy E=F+TS    =  -27818.62441810 Ry

     The total energy is F=E-TS. E is the sum of the following terms:
     one-electron contribution =  -29353.11087158 Ry
     hartree contribution      =   14981.60510129 Ry
     xc contribution           =    -909.04646384 Ry
     ewald contribution        =   12955.53334437 Ry
     one-center paw contrib.   =  -25493.60552834 Ry

     convergence has been achieved in  20 iterations

[...]

     Forces acting on atoms (cartesian axes, Ry/au):

     atom    1 type  1   force =     0.00154602    0.00023196   -0.00350082
     atom    2 type  1   force =     0.00021549   -0.00031945   -0.00919349
     atom    3 type  1   force =    -0.00124071    0.00031931   -0.00339688
     atom    4 type  1   force =     0.00044508   -0.00112601   -0.00327997
     atom    5 type  1   force =    -0.00016463   -0.00110059   -0.00335173
     atom    6 type  1   force =     0.00013712    0.00010108   -0.00305973
     atom    7 type  1   force =     0.00006496   -0.00000912   -0.00315787
     atom    8 type  1   force =     0.00088804    0.00100915   -0.00345706
     atom    9 type  1   force =    -0.00080404    0.00103681   -0.00333493
     atom   10 type  1   force =    -0.00152554    0.00034772    0.00096632
     atom   11 type  1   force =     0.00141311    0.00056172    0.00194087
     atom   12 type  1   force =    -0.00055179    0.00369023    0.01076226
     atom   13 type  1   force =    -0.00064493    0.00021299   -0.00045557
     atom   14 type  1   force =     0.00322752   -0.00222930    0.01026991
     atom   15 type  1   force =    -0.00332264   -0.00169589    0.01024793
     atom   16 type  1   force =    -0.00028794    0.00025288    0.00019578
     atom   17 type  1   force =     0.00004494   -0.00103037    0.00141505
     atom   18 type  1   force =    -0.00069544   -0.00004112    0.00108630
     atom   19 type  1   force =     0.00001701   -0.00001873    0.00003314
     atom   20 type  1   force =    -0.00007937    0.00000076    0.00021687
     atom   21 type  1   force =    -0.00015316   -0.00002772   -0.00012286
     atom   22 type  1   force =    -0.00007495   -0.00001667    0.00011816
     atom   23 type  1   force =    -0.00017111    0.00003665    0.00016602
     atom   24 type  1   force =    -0.00007276    0.00007690   -0.00008528
     atom   25 type  1   force =    -0.00009578    0.00003128    0.00006864
     atom   26 type  1   force =    -0.00012826   -0.00001210    0.00014130
     atom   27 type  1   force =    -0.00007523    0.00004716    0.00010454
     atom   28 type  1   force =     0.00000817    0.00008488    0.00023917
     atom   29 type  1   force =     0.00000653    0.00000366   -0.00025530
     atom   30 type  1   force =    -0.00000804   -0.00000666    0.00022159
     atom   31 type  1   force =    -0.00001626    0.00002715    0.00022023
     atom   32 type  1   force =    -0.00003128   -0.00000795    0.00021800
     atom   33 type  1   force =     0.00002867   -0.00021779    0.00083570
     atom   34 type  1   force =     0.00004626    0.00000995   -0.00027760
     atom   35 type  1   force =     0.00003764    0.00012285    0.00022753
     atom   36 type  1   force =     0.00008132   -0.00003136   -0.00000570
     atom   37 type  2   force =     0.00230117    0.00016561    0.00117720
     atom   38 type  2   force =     0.00009792   -0.00010002   -0.00292973
     atom   39 type  2   force =     0.00066566   -0.00302509    0.00011762
     atom   40 type  3   force =    -0.00008362   -0.00003565    0.00012273
     atom   41 type  3   force =    -0.00014577    0.00046859    0.00010092
     atom   42 type  3   force =     0.00007354   -0.00008157    0.00013145
     atom   43 type  3   force =    -0.00029743   -0.00037140   -0.00007064
     atom   44 type  3   force =    -0.00043016   -0.00012160    0.00001455
     atom   45 type  3   force =    -0.00024536    0.00278685   -0.00142463

     Total force =     0.006079     Total SCF correction =     0.001859
     SCF correction compared to forces is large: reduce conv_thr to get better values

[...]

     negative rho (up, down):  1.288E-02 0.000E+00

     negative rho (up, down):  1.288E-02 0.000E+00
 BEEFens 2000 ensemble energies
             -0.608861836320714E+02
             -0.361799083082880E+01
             -0.158617695548215E+02
              0.430745673096639E+02
             -0.221817365487299E+02
             -0.205670257636272E+02
             -0.353882657026013E+02
             -0.867935593344993E+02
             -0.465748741462614E+02
             -0.473401179013620E+02
             -0.370490660846136E+02
              0.232262881927404E+01
              0.408796270080865E+01
              0.758048891772432E+01
              0.266270527381977E+01
              0.476384691830771E+02
             -0.209169729070932E+02
             -0.230049703908912E+02
              0.193833683361927E+02
             -0.112718521565868E+03
              0.538066556080619E+02
             -0.290260006149538E+02
             -0.335668230349906E+01
             -0.114268800255064E+02
             -0.880026635085233E+01
             -0.461437582072932E+01
              0.885297430391345E+02
             -0.188305629956577E+02
             -0.900606128890706E+01
             -0.520220879909438E+02
              0.817017092348069E+02
             -0.186936195259089E+02
             -0.376088570160207E+02
              0.249490028095330E+02
             -0.285007154611662E+01
              0.165301357006128E+02
             -0.483474499706898E+01
              0.107851135266511E+02
              0.290048546881493E+02
             -0.103528670525506E+03
              0.560117021305195E+02
              0.142863859659424E+02
             -0.179052139230214E+01
             -0.362157754471732E+02
              0.123591559262503E+02
             -0.147604067091609E+02
              0.399993982565813E+02
              0.365750697223644E+02
             -0.308329381553491E+02
             -0.275992510501409E+02
             -0.329462351405500E+02
             -0.353415656768916E+02
              0.137504294623081E+02
             -0.492299491857959E+02
              0.116189571324139E+02
              0.625047476311255E+02
              0.637935790921395E+02
              0.356808937917476E+02
              0.154359275308089E+02
              0.271811369406848E+02
[...]
             -0.708544748031987E+02
             -0.838554579840888E+00
             -0.248421218442972E+01
             -0.885725108719259E+01
             -0.180290783055989E+01
             -0.654655177951490E+02
             -0.210435561759168E+02
              0.545226698480361E+01
              0.907136015714161E+01
              0.470478568104052E+02
             -0.399122833954542E+02
              0.658302560753040E+02
             -0.426343872648664E+02
              0.211480973479282E+02
              0.351618719272729E+02

 BEEF-vdW xc energy contributions
           1 :   -784.755806977705
           2 :    720.648158647778
           3 :   -609.737860689720
           4 :    479.302479108638
           5 :   -356.980286031727
           6 :    262.637848181840
           7 :   -203.893958641445
           8 :    176.131807425515
           9 :   -166.567372653849
          10 :    160.455277274824
          11 :   -146.901030986946
          12 :    122.100199158399
          13 :   -89.1732158457044
          14 :    55.2278696854237
          15 :   -27.3396298333980
          16 :    9.27020766372812
          17 :  -0.191149738674653
          18 :   -4.33903935151159
          19 :    9.86360801205456
          20 :   -20.3033148099150
          21 :    36.2674972427814
          22 :   -55.0651835510116
          23 :    72.2420638110342
          24 :   -83.8039351095342
          25 :    88.0360250395878
          26 :   -86.1174949710929
          27 :    81.3444832207052
          28 :   -77.4337706252825
          29 :    76.7587966210949
          30 :   -79.3522321339013
          31 :   -86.1893000587989
          32 :   -66.0033860548608

     Writing output data file ./pwscf.save/

     General routines

     Parallel routines

   This run was terminated on:  18:51:24  20May2022

   JOB DONE.