     Program PWSCF v.6.7MaX starts on 20May2022 at 14:55: 8

     Reading input from c3h8-ensemble.in
Warning: card &CELL ignored
Warning: card / ignored

     Current dimensions of program PWSCF are:
     Max number of different atomic species (ntypx) = 10
     Max number of k-points (npk) =  40000
     Max angular momentum in pseudopotentials (lmaxx) =  3
     file Pt.pbe-n-kjpaw_psl.1.0.0.UPF: wavefunction(s)  6S 5D renormalized
     file C.pbe-n-kjpaw_psl.1.0.0.UPF: wavefunction(s)  2S 2P renormalized
     file H.pbe-kjpaw_psl.1.0.0.UPF: wavefunction(s)  1S renormalized

     IMPORTANT: XC functional enforced from input :
     Exchange-correlation= BEEF-VDW
                           (   1   4  43  14   2   0   0)
     Any further DFT definition will be discarded
     Please, verify this is what you really want

     Subspace diagonalization in iterative solution of the eigenvalue problem:
     a serial algorithm will be used

     bravais-lattice index     =            0
     lattice parameter (alat)  =      16.0349  a.u.
     unit-cell volume          =   12075.3171 (a.u.)^3
     number of atoms/cell      =           47
     number of atomic types    =            3
     number of electrons       =       380.00
     number of Kohn-Sham states=          228
     kinetic-energy cutoff     =      60.0000  Ry
     charge density cutoff     =     240.0000  Ry
     scf convergence threshold =      1.0E-06
     mixing beta               =       0.7000
     number of iterations used =            8  local-TF  mixing
     Exchange-correlation= BEEF-VDW
                           (   1   4  43  14   2   0   0)

     celldm(1)=  16.034858  celldm(2)=   0.000000  celldm(3)=   0.000000
     celldm(4)=   0.000000  celldm(5)=   0.000000  celldm(6)=   0.000000

     crystal axes: (cart. coord. in units of alat)
               a(1) = (   1.000000   0.000000   0.000000 )
               a(2) = (   0.500000   0.866025   0.000000 )
               a(3) = (   0.000000   0.000000   3.381992 )

     reciprocal axes: (cart. coord. in units 2 pi/alat)
               b(1) = (  1.000000 -0.577350  0.000000 )
               b(2) = (  0.000000  1.154701  0.000000 )
               b(3) = (  0.000000  0.000000  0.295684 )

     PseudoPot. # 1 for Pt read from file:
     /users/bkreitz1/quantum-espresso/potentials/Pt.pbe-n-kjpaw_psl.1.0.0.UPF
     MD5 check sum: 04dc8a03c51ece93fc7b5889c2958091
     Pseudo is Projector augmented-wave + core cor, Zval = 10.0
     Generated using 'atomic' code by A. Dal Corso  v.6.7MaX
     Shape of augmentation charge: PSQ
     Using radial grid of 1277 points,  6 beta functions with:
                l(1) =   0
                l(2) =   0
                l(3) =   1
                l(4) =   1
                l(5) =   2
                l(6) =   2
     Q(r) pseudized with 0 coefficients

     PseudoPot. # 2 for C  read from file:
     /users/bkreitz1/quantum-espresso/potentials/C.pbe-n-kjpaw_psl.1.0.0.UPF
     MD5 check sum: a169b0ebad56f5ec0d79c4633f80bf22
     Pseudo is Projector augmented-wave + core cor, Zval =  4.0
     Generated using 'atomic' code by A. Dal Corso  v.6.7MaX
     Shape of augmentation charge: PSQ
     Using radial grid of 1073 points,  4 beta functions with:
                l(1) =   0
                l(2) =   0
                l(3) =   1
                l(4) =   1
     Q(r) pseudized with 0 coefficients

     PseudoPot. # 3 for H  read from file:
     /users/bkreitz1/quantum-espresso/potentials/H.pbe-kjpaw_psl.1.0.0.UPF
     MD5 check sum: ae98473e6dc62675f0d0baffdab24f65
     Pseudo is Projector augmented-wave, Zval =  1.0
     Generated using 'atomic' code by A. Dal Corso  v.6.7MaX
     Shape of augmentation charge: PSQ
     Using radial grid of  929 points,  2 beta functions with:
                l(1) =   0
                l(2) =   0
     Q(r) pseudized with 0 coefficients

     atomic species   valence    mass     pseudopotential
        Pt            10.00   195.08400     Pt( 1.00)
        C              4.00    12.01100     C ( 1.00)
        H              1.00     1.00800     H ( 1.00)

     No symmetry found

   Cartesian axes

     site n.     atom                  positions (alat units)
         1           Pt  tau(   1) = (   0.0000000   0.0000000   1.0017346  )
         2           Pt  tau(   2) = (   0.3333333   0.0000000   1.0017346  )
         3           Pt  tau(   3) = (   0.6666667   0.0000000   1.0017346  )
         4           Pt  tau(   4) = (   0.1666667   0.2886751   1.0017346  )
         5           Pt  tau(   5) = (   0.5000000   0.2886751   1.0017346  )
         6           Pt  tau(   6) = (   0.8333333   0.2886751   1.0017346  )
         7           Pt  tau(   7) = (   0.3333333   0.5773503   1.0017346  )
         8           Pt  tau(   8) = (   0.6666667   0.5773503   1.0017346  )
         9           Pt  tau(   9) = (   1.0000000   0.5773503   1.0017346  )
        10           Pt  tau(  10) = (   0.1666667   0.0962250   1.2739001  )
        11           Pt  tau(  11) = (   0.5000000   0.0962250   1.2739001  )
        12           Pt  tau(  12) = (   0.8333333   0.0962250   1.2739001  )
        13           Pt  tau(  13) = (   0.3333333   0.3849002   1.2739001  )
        14           Pt  tau(  14) = (   0.6666667   0.3849002   1.2739001  )
        15           Pt  tau(  15) = (   1.0000000   0.3849002   1.2739001  )
        16           Pt  tau(  16) = (   0.5000000   0.6735753   1.2739001  )
        17           Pt  tau(  17) = (   0.8333333   0.6735753   1.2739001  )
        18           Pt  tau(  18) = (   1.1666667   0.6735753   1.2739001  )
        19           Pt  tau(  19) = (   0.0002389   0.1923228   1.5425632  )
        20           Pt  tau(  20) = (   0.3334307   0.1924162   1.5426338  )
        21           Pt  tau(  21) = (   0.6667829   0.1922848   1.5425520  )
        22           Pt  tau(  22) = (   0.1668958   0.4809837   1.5425941  )
        23           Pt  tau(  23) = (   0.4999443   0.4809874   1.5423138  )
        24           Pt  tau(  24) = (   0.8335601   0.4809969   1.5421366  )
        25           Pt  tau(  25) = (   0.3334722   0.7697163   1.5427874  )
        26           Pt  tau(  26) = (   0.6667598   0.7699237   1.5422984  )
        27           Pt  tau(  27) = (   1.0002122   0.7697848   1.5425623  )
        28           Pt  tau(  28) = (   0.0002905  -0.0001645   1.8167557  )
        29           Pt  tau(  29) = (   0.3337904  -0.0001014   1.8163700  )
        30           Pt  tau(  30) = (   0.6670626  -0.0002190   1.8169546  )
        31           Pt  tau(  31) = (   0.1670317   0.2884902   1.8168415  )
        32           Pt  tau(  32) = (   0.5003406   0.2884385   1.8163914  )
        33           Pt  tau(  33) = (   0.8338184   0.2882988   1.8159024  )
        34           Pt  tau(  34) = (   0.3336086   0.5771862   1.8167796  )
        35           Pt  tau(  35) = (   0.6667541   0.5773346   1.8149833  )
        36           Pt  tau(  36) = (   1.0005306   0.5771976   1.8159789  )
        37           C   tau(  37) = (   0.6610056   0.3809764   2.2711235  )
        38           C   tau(  38) = (   0.8147949   0.4754031   2.2647376  )
        39           C   tau(  39) = (   0.7882488   0.6539096   2.2675130  )
        40           H   tau(  40) = (   0.6830994   0.2541277   2.2647244  )
        41           H   tau(  41) = (   0.5965824   0.4046537   2.3802573  )
        42           H   tau(  42) = (   0.5834649   0.4121076   2.1727460  )
        43           H   tau(  43) = (   0.8800067   0.4436607   2.1577055  )
        44           H   tau(  44) = (   0.8903011   0.4415257   2.3638462  )
        45           H   tau(  45) = (   0.8995775   0.7184596   2.2595144  )
        46           H   tau(  46) = (   0.7290118   0.6903649   2.3761148  )
        47           H   tau(  47) = (   0.7142660   0.6914247   2.1697732  )

     number of k points=    13  Marzari-Vanderbilt smearing, width (Ry)=  0.0200
                       cart. coord. in units 2pi/alat
        k(    1) = (   0.0000000   0.0000000   0.0000000), wk =   0.0800000
        k(    2) = (   0.0000000   0.2309401   0.0000000), wk =   0.1600000
        k(    3) = (   0.0000000   0.4618802   0.0000000), wk =   0.1600000
        k(    4) = (   0.2000000  -0.1154701   0.0000000), wk =   0.1600000
        k(    5) = (   0.2000000   0.1154701   0.0000000), wk =   0.1600000
        k(    6) = (   0.2000000   0.3464102   0.0000000), wk =   0.1600000
        k(    7) = (   0.2000000  -0.5773503   0.0000000), wk =   0.1600000
        k(    8) = (   0.2000000  -0.3464102   0.0000000), wk =   0.1600000
        k(    9) = (   0.4000000  -0.2309401   0.0000000), wk =   0.1600000
        k(   10) = (   0.4000000  -0.0000000   0.0000000), wk =   0.1600000
        k(   11) = (   0.4000000   0.2309401   0.0000000), wk =   0.1600000
        k(   12) = (   0.4000000  -0.6928203   0.0000000), wk =   0.1600000
        k(   13) = (   0.4000000  -0.4618802   0.0000000), wk =   0.1600000

     Check: negative core charge=   -0.000002

     Initial potential from superposition of free atoms

     starting charge  379.99369, renormalised to  380.00000

     negative rho (up, down):  1.033E-02 0.000E+00

     %%%%%%%%%%%%%%%%%%%%%%%%%%%%%%%%%%%%%%%%%%%%%%%%%%%%%%%%%%%%%%%%%%%%%%%%
     %                                                                      %
     % You are using vdW-DF, which was implemented by the Thonhauser group. %
     % Please cite the following two papers that made this development      %
     % possible and the two reviews that describe the various versions:     %
     %                                                                      %
     %   T. Thonhauser et al., PRL 115, 136402 (2015).                      %
     %   T. Thonhauser et al., PRB 76, 125112 (2007).                       %
     %   K. Berland et al., Rep. Prog. Phys. 78, 066501 (2015).             %
     %   D.C. Langreth et al., J. Phys.: Condens. Matter 21, 084203 (2009). %
     %                                                                      %
     %                                                                      %
     % If you are calculating the stress with vdW-DF, please also cite:     %
     %                                                                      %
     %   R. Sabatini et al., J. Phys.: Condens. Matter 24, 424209 (2012).   %
     %                                                                      %
     %%%%%%%%%%%%%%%%%%%%%%%%%%%%%%%%%%%%%%%%%%%%%%%%%%%%%%%%%%%%%%%%%%%%%%%%

     Starting wfcs are  344 randomized atomic wfcs
     Checking if some PAW data can be deallocated...

     Self-consistent Calculation

     iteration #  1     ecut=    60.00 Ry     beta= 0.70
     Davidson diagonalization with overlap
     ethr =  1.00E-02,  avg # of iterations =  2.9

     Threshold (ethr) on eigenvalues was too large:
     Diagonalizing with lowered threshold

     Davidson diagonalization with overlap
     ethr =  7.37E-04,  avg # of iterations =  3.1

[...]

     total energy              =  -27821.03474257 Ry
     estimated scf accuracy    <       3.00864385 Ry

[...]

     iteration #  4     ecut=    60.00 Ry     beta= 0.70
     Davidson diagonalization with overlap
     c_bands:  2 eigenvalues not converged
     c_bands:  2 eigenvalues not converged
     ethr =  1.31E-04,  avg # of iterations = 13.1

[...]

     iteration # 21     ecut=    60.00 Ry     beta= 0.70
     Davidson diagonalization with overlap
     c_bands:  1 eigenvalues not converged
     ethr =  1.08E-08,  avg # of iterations =  3.4

[...]

     total energy              =  -27821.11814758 Ry
     estimated scf accuracy    <       0.00000224 Ry

     iteration # 25     ecut=    60.00 Ry     beta= 0.70
     Davidson diagonalization with overlap
     ethr =  5.88E-10,  avg # of iterations =  2.9

[...]

     End of self-consistent calculation

          k = 0.0000 0.0000 0.0000 ( 94897 PWs)   bands (ev):

   -12.4998  -9.9804  -7.5500  -7.4575  -6.1468  -5.0718  -5.0369  -5.0368
    -5.0362  -5.0338  -5.0333  -5.0323  -5.0239  -4.4792  -4.4773  -4.4768
    -4.4758  -4.4754  -4.4750  -4.3069  -4.0038  -4.0029  -4.0020  -4.0008
    -4.0003  -3.9987  -3.7983  -3.7870  -3.7857  -3.7850  -3.7838  -3.7824
    -3.7561  -3.5598  -3.5596  -3.5543  -3.5536  -3.5385  -3.5378  -3.5376
    -3.5370  -3.5364  -3.5350  -3.5231  -3.5224  -2.9410  -2.9406  -2.9109
    -2.9105  -2.8628  -2.8534  -2.8530  -2.8521  -2.8501  -2.8496  -2.8193
    -2.7143  -2.7139  -2.6134  -2.6123  -2.4138  -2.1056  -2.1046  -2.1018
    -2.1011  -2.1003  -2.0963  -2.0370  -1.9498  -1.9498  -1.9174  -1.9172
    -1.9059  -1.9050  -1.8910  -1.8883  -1.8856  -1.8849  -1.8829  -1.8817
    -1.8781  -1.8483  -1.8480  -1.6933  -1.6902  -1.6875  -1.6870  -1.6857
    -1.6848  -1.5402  -1.5400  -1.5374  -1.5356  -1.5341  -1.5327  -1.4369
    -1.4366  -1.3390  -1.3386  -1.3261  -1.2891  -1.2817  -1.2728  -1.2703
    -1.2610  -1.2466  -1.2269  -1.2268  -1.2096  -1.1242  -1.0639  -1.0616
    -1.0604  -1.0579  -1.0541  -1.0173  -0.9754  -0.5714  -0.5703  -0.5690
    -0.5675  -0.5669  -0.5655  -0.4944  -0.4919  -0.4897  -0.4894  -0.4888
    -0.4854  -0.4201  -0.4196  -0.2489  -0.2469  -0.2440  -0.2416  -0.2411
    -0.2358  -0.1040  -0.1033  -0.1032  -0.0995  -0.0928  -0.0927   0.1613
     0.1614   0.1626   0.1641   0.1654   0.1657   0.2425   0.2436   0.4252
     0.4252   0.4282   0.4285   0.4288   0.4309   0.5950   0.5954   0.5970
     0.5985   0.5990   0.5996   0.6417   0.6431   0.6440   0.6476   0.6492
     0.6527   0.7732   0.7737   0.7933   0.7937   0.7947   0.7953   0.7956
     0.7958   0.8983   0.9003   0.9014   0.9021   0.9022   0.9030   0.9076
     0.9079   1.0017   1.0028   1.0051   1.0054   1.0069   1.0071   1.1074
     1.1078   1.1153   1.1156   1.1170   1.1171   1.2207   1.3324   1.3350
     1.4407   1.4414   1.4422   1.4430   1.4442   1.4445   2.3023   2.3301
     2.3317   2.3330   2.3445   2.3458   2.3581   4.6573   4.6575   4.6637
     4.6751   4.6803   4.6859   5.7957   6.1967   6.1971   6.2529   6.2538
     6.2550   6.2553   6.3074   6.6849

[...]

          k = 0.4000-0.4619 0.0000 ( 94786 PWs)   bands (ev):

   -12.4996  -9.9811  -7.5497  -6.4906  -6.4880  -5.8817  -5.2324  -5.2272
    -4.7174  -4.7153  -4.5828  -4.5493  -4.4400  -4.4391  -4.3401  -4.3316
    -4.3273  -4.2049  -4.2037  -4.1974  -4.1683  -4.1658  -4.1333  -4.1107
    -4.0080  -3.9983  -3.9967  -3.9547  -3.9537  -3.8518  -3.7678  -3.7524
    -3.7413  -3.6750  -3.5820  -3.5814  -3.5641  -3.5625  -3.5483  -3.4342
    -3.4327  -3.3417  -3.3382  -3.1651  -3.1577  -3.0973  -2.9994  -2.9962
    -2.9459  -2.9452  -2.8382  -2.8245  -2.7870  -2.7385  -2.7369  -2.7175
    -2.6738  -2.6722  -2.6428  -2.5381  -2.5359  -2.5119  -2.5060  -2.4973
    -2.4966  -2.4943  -2.4245  -2.4192  -2.3997  -2.2911  -2.2661  -2.2177
    -2.2168  -2.0996  -2.0623  -2.0599  -2.0573  -2.0134  -1.9694  -1.9686
    -1.8806  -1.8584  -1.8547  -1.8505  -1.8162  -1.7845  -1.7398  -1.7337
    -1.6961  -1.6426  -1.6363  -1.6183  -1.6156  -1.5069  -1.4609  -1.4583
    -1.4137  -1.4121  -1.3713  -1.3709  -1.3632  -1.3520  -1.3227  -1.3202
    -1.3050  -1.2908  -1.2789  -1.2663  -1.2400  -1.2248  -1.2214  -1.2209
    -1.2178  -1.1981  -1.1737  -1.1433  -1.1004  -1.0979  -1.0210  -0.8870
    -0.8779  -0.7908  -0.7889  -0.6837  -0.6704  -0.6687  -0.6426  -0.5790
    -0.5781  -0.5763  -0.5549  -0.5503  -0.4682  -0.4354  -0.4335  -0.3684
    -0.3415  -0.3353  -0.2807  -0.2723  -0.2285  -0.0888  -0.0257  -0.0235
    -0.0038  -0.0027   0.0909   0.0949   0.0970   0.1182   0.1350   0.1421
     0.1743   0.1763   0.2935   0.2947   0.3049   0.3615   0.3632   0.3840
     0.3925   0.4104   0.4114   0.5699   0.6216   0.6481   0.7286   0.7319
     0.8108   0.8119   0.8962   0.9399   0.9444   0.9462   1.0527   1.0543
     1.1255   1.1581   1.1652   1.1746   1.1773   1.2222   1.2242   1.2564
     1.3336   1.3340   1.3592   1.3865   1.3868   1.3936   1.4010   1.4512
     1.5923   1.5977   1.5983   1.5991   1.6002   1.6755   1.7446   1.7890
     1.9296   2.7483   2.7487   2.9919   3.0126   3.0288   3.1526   3.1537
     3.1610   3.6097   3.7605   3.7606   4.2196   4.2482   4.2523   4.3657
     4.3673   4.5780   4.6619   4.7526   4.8251   5.1080   5.1995   5.2037
     5.7385   5.8424   5.8447   6.2035

     the Fermi energy is     1.3654 ev

!    total energy              =  -27821.11814718 Ry

     total all-electron energy =  -1326881.175825 Ry
     estimated scf accuracy    <       0.00000053 Ry
     smearing contrib. (-TS)   =       0.00241762 Ry
     internal energy E=F+TS    =  -27821.12056480 Ry

     The total energy is F=E-TS. E is the sum of the following terms:
     one-electron contribution =  -30020.03955049 Ry
     hartree contribution      =   15309.50382303 Ry
     xc contribution           =    -910.60199094 Ry
     ewald contribution        =   13293.59982207 Ry
     one-center paw contrib.   =  -25493.58266846 Ry

     convergence has been achieved in  25 iterations

[...]

     Forces acting on atoms (cartesian axes, Ry/au):

     atom    1 type  1   force =    -0.00004155    0.00001292   -0.00326966
     atom    2 type  1   force =     0.00005087    0.00003388   -0.00327483
     atom    3 type  1   force =     0.00007086    0.00002826   -0.00316634
     atom    4 type  1   force =    -0.00001909    0.00007748   -0.00327123
     atom    5 type  1   force =     0.00004800    0.00001380   -0.00324677
     atom    6 type  1   force =     0.00001804    0.00001863   -0.00319735
     atom    7 type  1   force =     0.00001311    0.00008471   -0.00320926
     atom    8 type  1   force =     0.00001156    0.00001995   -0.00323392
     atom    9 type  1   force =     0.00004025    0.00003383   -0.00321245
     atom   10 type  1   force =    -0.00002247    0.00007559    0.00331962
     atom   11 type  1   force =     0.00023297   -0.00006203    0.00331674
     atom   12 type  1   force =     0.00008257   -0.00022416    0.00325620
     atom   13 type  1   force =    -0.00002280    0.00005029    0.00331635
     atom   14 type  1   force =     0.00005594   -0.00015124    0.00271581
     atom   15 type  1   force =     0.00020413   -0.00005536    0.00297137
     atom   16 type  1   force =    -0.00021161    0.00017222    0.00299149
     atom   17 type  1   force =     0.00019497    0.00007920    0.00273345
     atom   18 type  1   force =     0.00027655    0.00008661    0.00330230
     atom   19 type  1   force =     0.00011971    0.00004606   -0.00016132
     atom   20 type  1   force =     0.00005415   -0.00001118   -0.00020495
     atom   21 type  1   force =     0.00001227    0.00002540   -0.00007714
     atom   22 type  1   force =     0.00000989   -0.00003076   -0.00017055
     atom   23 type  1   force =     0.00007149   -0.00000398   -0.00007950
     atom   24 type  1   force =     0.00004571    0.00004422    0.00006450
     atom   25 type  1   force =     0.00002840    0.00005825   -0.00026136
     atom   26 type  1   force =     0.00009499    0.00007734   -0.00007814
     atom   27 type  1   force =    -0.00000936    0.00005932   -0.00010011
     atom   28 type  1   force =     0.00000952    0.00009930    0.00008466
     atom   29 type  1   force =    -0.00002800    0.00005646    0.00014546
     atom   30 type  1   force =     0.00001199    0.00007815    0.00006265
     atom   31 type  1   force =    -0.00000531    0.00001373    0.00006987
     atom   32 type  1   force =    -0.00002369    0.00001368    0.00002298
     atom   33 type  1   force =     0.00002216    0.00002487   -0.00009786
     atom   34 type  1   force =     0.00002261    0.00008331    0.00010844
     atom   35 type  1   force =    -0.00002257    0.00004437   -0.00022150
     atom   36 type  1   force =     0.00005640    0.00005765    0.00008336
     atom   37 type  2   force =     0.00009946   -0.00023456    0.00110063
     atom   38 type  2   force =    -0.00176042    0.00026400   -0.00113962
     atom   39 type  2   force =     0.00409453   -0.00247959    0.00822670
     atom   40 type  3   force =    -0.00003691    0.00037996    0.00021092
     atom   41 type  3   force =     0.00009671   -0.00011133   -0.00008974
     atom   42 type  3   force =     0.00037271   -0.00011338    0.00050901
     atom   43 type  3   force =    -0.00010192   -0.00005057    0.00021799
     atom   44 type  3   force =    -0.00020794    0.00005922   -0.00010926
     atom   45 type  3   force =    -0.00054937   -0.00020540    0.00002741
     atom   46 type  3   force =     0.00088526   -0.00042936    0.00043778
     atom   47 type  3   force =    -0.00434476    0.00189024   -0.00742283

     Total force =     0.013287     Total SCF correction =     0.001037

[...]

     negative rho (up, down):  1.159E-02 0.000E+00

     negative rho (up, down):  1.159E-02 0.000E+00
 BEEFens 2000 ensemble energies
             -0.610019391192679E+02
             -0.360750009013233E+01
             -0.158784172099693E+02
              0.431653013763398E+02
             -0.222365805043916E+02
             -0.205941290271065E+02
             -0.355091886675061E+02
             -0.869906454504296E+02
             -0.466421090142619E+02
             -0.474131577816509E+02
             -0.370902872771769E+02
              0.234038394826843E+01
              0.407206301719810E+01
              0.757004576870213E+01
              0.267211670503187E+01
              0.477267946459218E+02
             -0.209679719251401E+02
             -0.230057626215251E+02
              0.193927704650682E+02
             -0.112940388030779E+03
              0.539036884975531E+02
             -0.290472694610191E+02
             -0.337975095005034E+01
             -0.114617271861972E+02
             -0.876476777838366E+01
             -0.462256160790955E+01
              0.887117501614389E+02
             -0.188724462715916E+02
             -0.902578027972334E+01
             -0.521025881171743E+02
              0.818121204283868E+02
             -0.186871916943223E+02
             -0.376795287056665E+02
              0.249756091647723E+02
             -0.286341158097355E+01
              0.165704599425735E+02
             -0.483792787564460E+01
              0.107905478627690E+02
              0.290607402371093E+02
             -0.103723749668966E+03
              0.561408029927672E+02
              0.143061373242443E+02
             -0.182899927386143E+01
             -0.362602798719145E+02
              0.123822819338822E+02
             -0.148204823226689E+02
              0.400934459318822E+02
              0.366418737829135E+02
             -0.308671852770616E+02
             -0.276340061643087E+02
             -0.329728558677803E+02
             -0.354218443762850E+02
              0.138019910190402E+02
             -0.493305140462239E+02
              0.116631760966035E+02
              0.626178032651910E+02
              0.639353127295138E+02
              0.357604785033598E+02
              0.154844468676130E+02
              0.272577335122073E+02
[...]
             -0.709964898050761E+02
             -0.802563005714660E+00
             -0.246616346996040E+01
             -0.887369062471453E+01
             -0.181644914418928E+01
             -0.655894586931337E+02
             -0.210489676299943E+02
              0.549303075118202E+01
              0.910606922169251E+01
              0.471446453940479E+02
             -0.399774209642266E+02
              0.659362180545792E+02
             -0.427128304546985E+02
              0.212134344832415E+02
              0.352418675781185E+02

 BEEF-vdW xc energy contributions
           1 :   -785.942183381487
           2 :    721.331328315728
           3 :   -609.883684271182
           4 :    479.243741932677
           5 :   -357.034712945057
           6 :    262.891715891464
           7 :   -204.244895943945
           8 :    176.438613868419
           9 :   -166.752823666045
          10 :    160.515282818063
          11 :   -146.875146346859
          12 :    122.048721248130
          13 :   -89.1549808817898
          14 :    55.2728882540694
          15 :   -27.4352196494847
          16 :    9.37389903323492
          17 :  -0.260684276795473
          18 :   -4.32144495666523
          19 :    9.88353120637726
          20 :   -20.3231989496609
          21 :    36.2469879048808
          22 :   -54.9820275486311
          23 :    72.1012884547102
          24 :   -83.6352489551527
          25 :    87.8811197970670
          26 :   -86.0078564686637
          27 :    81.2837044258255
          28 :   -77.4011664727502
          29 :    76.7331579956273
          30 :   -79.3397766197268
          31 :   -86.3799759373625
          32 :   -66.0634562819889

     Writing output data file ./pwscf.save/

     General routines

     Parallel routines

   This run was terminated on:  19:57:30  20May2022

   JOB DONE.