     Program PWSCF v.6.7MaX starts on 20Dec2022 at 15:43:16

     Reading input from cc-ensemble.in
Warning: card &CELL ignored
Warning: card / ignored

     Current dimensions of program PWSCF are:
     Max number of different atomic species (ntypx) = 10
     Max number of k-points (npk) =  40000
     Max angular momentum in pseudopotentials (lmaxx) =  3
     file Pt.pbe-n-kjpaw_psl.1.0.0.UPF: wavefunction(s)  6S 5D renormalized
     file C.pbe-n-kjpaw_psl.1.0.0.UPF: wavefunction(s)  2S 2P renormalized

     IMPORTANT: XC functional enforced from input :
     Exchange-correlation= BEEF-VDW
                           (   1   4  43  14   2   0   0)
     Any further DFT definition will be discarded
     Please, verify this is what you really want

     Subspace diagonalization in iterative solution of the eigenvalue problem:
     a serial algorithm will be used

     bravais-lattice index     =            0
     lattice parameter (alat)  =      16.0349  a.u.
     unit-cell volume          =   10571.7109 (a.u.)^3
     number of atoms/cell      =           38
     number of atomic types    =            2
     number of electrons       =       368.00
     number of Kohn-Sham states=          221
     kinetic-energy cutoff     =      60.0000  Ry
     charge density cutoff     =     240.0000  Ry
     scf convergence threshold =      1.0E-06
     mixing beta               =       0.7000
     number of iterations used =            8  local-TF  mixing
     Exchange-correlation= BEEF-VDW
                           (   1   4  43  14   2   0   0)

     celldm(1)=  16.034858  celldm(2)=   0.000000  celldm(3)=   0.000000
     celldm(4)=   0.000000  celldm(5)=   0.000000  celldm(6)=   0.000000

     crystal axes: (cart. coord. in units of alat)
               a(1) = (   1.000000   0.000000   0.000000 )
               a(2) = (   0.500000   0.866025   0.000000 )
               a(3) = (   0.000000   0.000000   2.960870 )

     reciprocal axes: (cart. coord. in units 2 pi/alat)
               b(1) = (  1.000000 -0.577350  0.000000 )
               b(2) = (  0.000000  1.154701  0.000000 )
               b(3) = (  0.000000  0.000000  0.337739 )

     PseudoPot. # 1 for Pt read from file:
     /users/bkreitz1/quantum-espresso/potentials/Pt.pbe-n-kjpaw_psl.1.0.0.UPF
     MD5 check sum: 04dc8a03c51ece93fc7b5889c2958091
     Pseudo is Projector augmented-wave + core cor, Zval = 10.0
     Generated using 'atomic' code by A. Dal Corso  v.6.7MaX
     Shape of augmentation charge: PSQ
     Using radial grid of 1277 points,  6 beta functions with:
                l(1) =   0
                l(2) =   0
                l(3) =   1
                l(4) =   1
                l(5) =   2
                l(6) =   2
     Q(r) pseudized with 0 coefficients

     PseudoPot. # 2 for C  read from file:
     /users/bkreitz1/quantum-espresso/potentials/C.pbe-n-kjpaw_psl.1.0.0.UPF
     MD5 check sum: a169b0ebad56f5ec0d79c4633f80bf22
     Pseudo is Projector augmented-wave + core cor, Zval =  4.0
     Generated using 'atomic' code by A. Dal Corso  v.6.7MaX
     Shape of augmentation charge: PSQ
     Using radial grid of 1073 points,  4 beta functions with:
                l(1) =   0
                l(2) =   0
                l(3) =   1
                l(4) =   1
     Q(r) pseudized with 0 coefficients

     atomic species   valence    mass     pseudopotential
        Pt            10.00   195.08400     Pt( 1.00)
        C              4.00    12.01100     C ( 1.00)

     No symmetry found

   Cartesian axes

     site n.     atom                  positions (alat units)
         1           Pt  tau(   1) = (   0.0000000   0.0000000   1.0017346  )
         2           Pt  tau(   2) = (   0.3333333   0.0000000   1.0017346  )
         3           Pt  tau(   3) = (   0.6666667   0.0000000   1.0017346  )
         4           Pt  tau(   4) = (   0.1666667   0.2886751   1.0017346  )
         5           Pt  tau(   5) = (   0.5000000   0.2886751   1.0017346  )
         6           Pt  tau(   6) = (   0.8333333   0.2886751   1.0017346  )
         7           Pt  tau(   7) = (   0.3333333   0.5773503   1.0017346  )
         8           Pt  tau(   8) = (   0.6666667   0.5773503   1.0017346  )
         9           Pt  tau(   9) = (   1.0000000   0.5773503   1.0017346  )
        10           Pt  tau(  10) = (   0.1666667   0.0962250   1.2739001  )
        11           Pt  tau(  11) = (   0.5000000   0.0962250   1.2739001  )
        12           Pt  tau(  12) = (   0.8333333   0.0962250   1.2739001  )
        13           Pt  tau(  13) = (   0.3333333   0.3849002   1.2739001  )
        14           Pt  tau(  14) = (   0.6666667   0.3849002   1.2739001  )
        15           Pt  tau(  15) = (   1.0000000   0.3849002   1.2739001  )
        16           Pt  tau(  16) = (   0.5000000   0.6735753   1.2739001  )
        17           Pt  tau(  17) = (   0.8333333   0.6735753   1.2739001  )
        18           Pt  tau(  18) = (   1.1666667   0.6735753   1.2739001  )
        19           Pt  tau(  19) = (  -0.0020872   0.1909618   1.5459824  )
        20           Pt  tau(  20) = (   0.3329379   0.1922184   1.5458666  )
        21           Pt  tau(  21) = (   0.6615771   0.1930637   1.5476331  )
        22           Pt  tau(  22) = (   0.1666262   0.4821181   1.5407614  )
        23           Pt  tau(  23) = (   0.4979882   0.4764042   1.5476282  )
        24           Pt  tau(  24) = (   0.8312495   0.4799167   1.5414638  )
        25           Pt  tau(  25) = (   0.3382435   0.7726268   1.5477053  )
        26           Pt  tau(  26) = (   0.6643335   0.7687236   1.5459809  )
        27           Pt  tau(  27) = (   1.0008469   0.7692530   1.5407618  )
        28           Pt  tau(  28) = (  -0.0070648  -0.0040922   1.8519507  )
        29           Pt  tau(  29) = (   0.3452325  -0.0188845   1.8137225  )
        30           Pt  tau(  30) = (   0.6711636  -0.0018697   1.8181201  )
        31           Pt  tau(  31) = (   0.1562974   0.3083859   1.8137394  )
        32           Pt  tau(  32) = (   0.4976697   0.2873211   1.8645718  )
        33           Pt  tau(  33) = (   0.8226177   0.2878670   1.8171553  )
        34           Pt  tau(  34) = (   0.3339693   0.5821626   1.8181185  )
        35           Pt  tau(  35) = (   0.6606110   0.5684500   1.8171460  )
        36           Pt  tau(  36) = (   0.9980369   0.5761932   1.8118345  )
        37           C   tau(  37) = (   0.1746205   0.1008074   1.9550979  )
        38           C   tau(  38) = (   0.3135868   0.1809684   1.9664341  )

     number of k points=    13  Marzari-Vanderbilt smearing, width (Ry)=  0.0200
                       cart. coord. in units 2pi/alat
        k(    1) = (   0.0000000   0.0000000   0.0000000), wk =   0.0800000
        k(    2) = (   0.0000000   0.2309401   0.0000000), wk =   0.1600000
        k(    3) = (   0.0000000   0.4618802   0.0000000), wk =   0.1600000
        k(    4) = (   0.2000000  -0.1154701   0.0000000), wk =   0.1600000
        k(    5) = (   0.2000000   0.1154701   0.0000000), wk =   0.1600000
        k(    6) = (   0.2000000   0.3464102   0.0000000), wk =   0.1600000
        k(    7) = (   0.2000000  -0.5773503   0.0000000), wk =   0.1600000
        k(    8) = (   0.2000000  -0.3464102   0.0000000), wk =   0.1600000
        k(    9) = (   0.4000000  -0.2309401   0.0000000), wk =   0.1600000
        k(   10) = (   0.4000000  -0.0000000   0.0000000), wk =   0.1600000
        k(   11) = (   0.4000000   0.2309401   0.0000000), wk =   0.1600000
        k(   12) = (   0.4000000  -0.6928203   0.0000000), wk =   0.1600000
        k(   13) = (   0.4000000  -0.4618802   0.0000000), wk =   0.1600000

     Check: negative core charge=   -0.000001

     Initial potential from superposition of free atoms

     starting charge  367.99381, renormalised to  368.00000

     negative rho (up, down):  1.137E-02 0.000E+00

     %%%%%%%%%%%%%%%%%%%%%%%%%%%%%%%%%%%%%%%%%%%%%%%%%%%%%%%%%%%%%%%%%%%%%%%%
     %                                                                      %
     % You are using vdW-DF, which was implemented by the Thonhauser group. %
     % Please cite the following two papers that made this development      %
     % possible and the two reviews that describe the various versions:     %
     %                                                                      %
     %   T. Thonhauser et al., PRL 115, 136402 (2015).                      %
     %   T. Thonhauser et al., PRB 76, 125112 (2007).                       %
     %   K. Berland et al., Rep. Prog. Phys. 78, 066501 (2015).             %
     %   D.C. Langreth et al., J. Phys.: Condens. Matter 21, 084203 (2009). %
     %                                                                      %
     %                                                                      %
     % If you are calculating the stress with vdW-DF, please also cite:     %
     %                                                                      %
     %   R. Sabatini et al., J. Phys.: Condens. Matter 24, 424209 (2012).   %
     %                                                                      %
     %%%%%%%%%%%%%%%%%%%%%%%%%%%%%%%%%%%%%%%%%%%%%%%%%%%%%%%%%%%%%%%%%%%%%%%%

     Starting wfcs are  332 randomized atomic wfcs
     Checking if some PAW data can be deallocated...

     Self-consistent Calculation

     iteration #  1     ecut=    60.00 Ry     beta= 0.70
     Davidson diagonalization with overlap
     ethr =  1.00E-02,  avg # of iterations =  2.0

     Threshold (ethr) on eigenvalues was too large:
     Diagonalizing with lowered threshold

     Davidson diagonalization with overlap
     ethr =  6.90E-04,  avg # of iterations =  3.1

[...]

     total energy              =  -27791.68065938 Ry
     estimated scf accuracy    <       2.80291223 Ry

[...]

     iteration #  5     ecut=    60.00 Ry     beta= 0.70
     Davidson diagonalization with overlap
     c_bands:  1 eigenvalues not converged
     ethr =  2.22E-05,  avg # of iterations =  7.8

[...]

     iteration #  7     ecut=    60.00 Ry     beta= 0.70
     Davidson diagonalization with overlap
     c_bands:  2 eigenvalues not converged
     c_bands:  2 eigenvalues not converged
     c_bands:  1 eigenvalues not converged
     c_bands:  1 eigenvalues not converged
     ethr =  1.33E-06,  avg # of iterations = 15.7

[...]

     total energy              =  -27792.08140961 Ry
     estimated scf accuracy    <       0.00000255 Ry

     iteration # 17     ecut=    60.00 Ry     beta= 0.70
     Davidson diagonalization with overlap
     ethr =  6.94E-10,  avg # of iterations =  1.9

[...]

     End of self-consistent calculation

          k = 0.0000 0.0000 0.0000 ( 83001 PWs)   bands (ev):

   -13.7249  -7.0011  -6.5262  -5.4131  -4.7814  -4.7287  -4.2357  -4.1391
    -4.1205  -4.0975  -4.0709  -4.0624  -3.9729  -3.8722  -3.6819  -3.6113
    -3.5586  -3.5287  -3.4662  -3.4435  -3.4133  -3.2832  -3.0845  -2.9968
    -2.9857  -2.9769  -2.9425  -2.9231  -2.8859  -2.8369  -2.8306  -2.8266
    -2.7506  -2.7459  -2.7018  -2.6943  -2.6356  -2.6262  -2.5937  -2.5723
    -2.5526  -2.4565  -2.4500  -2.3467  -2.2134  -2.1335  -2.1174  -2.0569
    -2.0271  -2.0058  -2.0048  -1.9629  -1.9558  -1.8775  -1.8563  -1.8032
    -1.7862  -1.7368  -1.6348  -1.6254  -1.3830  -1.3326  -1.3080  -1.2964
    -1.2795  -1.2298  -1.1791  -1.1319  -1.1222  -1.0835  -1.0761  -1.0361
    -1.0327  -1.0185  -1.0032  -0.9899  -0.9680  -0.9456  -0.9404  -0.9321
    -0.9107  -0.8917  -0.8677  -0.8613  -0.8375  -0.8110  -0.8006  -0.7314
    -0.7010  -0.6579  -0.6377  -0.5975  -0.5693  -0.5596  -0.5387  -0.5126
    -0.5120  -0.4656  -0.4530  -0.4429  -0.3969  -0.3819  -0.3518  -0.3440
    -0.3387  -0.2497  -0.2318  -0.1985  -0.1901  -0.1305  -0.1298  -0.1058
    -0.0509   0.0647   0.0885   0.2430   0.2882   0.2962   0.3378   0.3934
     0.4008   0.4249   0.4738   0.4867   0.5016   0.5125   0.5143   0.5275
     0.5291   0.5783   0.5969   0.6601   0.7787   0.7937   0.8082   0.8406
     0.8879   0.9629   0.9822   1.0044   1.0064   1.0225   1.0335   1.0745
     1.0790   1.1155   1.1339   1.2008   1.2239   1.2775   1.3025   1.3105
     1.3482   1.3642   1.4003   1.4528   1.4588   1.4629   1.4736   1.4905
     1.4949   1.5212   1.5357   1.5385   1.5532   1.5717   1.6110   1.6309
     1.6394   1.6733   1.6881   1.7081   1.7301   1.7323   1.7873   1.8136
     1.8270   1.8295   1.8467   1.8577   1.8599   1.8808   1.9389   1.9543
     1.9599   1.9604   2.0171   2.0282   2.0286   2.0921   2.1497   2.2066
     2.2336   2.2478   2.2875   2.2972   2.3339   2.3954   2.5308   2.5621
     2.9126   3.1588   3.1688   3.1764   3.4258   3.7002   3.7576   5.1353
     5.4120   5.4946   5.5372   5.6990   5.8542   6.5588   6.8306   6.9702
     7.1254   7.1373   7.2107   7.2214   7.3606

[...]

          k = 0.4000-0.4619 0.0000 ( 82944 PWs)   bands (ev):

   -13.7215  -7.0193  -5.6453  -5.5434  -4.9958  -4.8129  -4.6954  -4.1765
    -4.0569  -3.8498  -3.7615  -3.6619  -3.6276  -3.5589  -3.5012  -3.4739
    -3.4075  -3.3955  -3.3144  -3.2856  -3.2710  -3.2562  -3.2080  -3.1967
    -3.1107  -3.0735  -3.0419  -3.0186  -3.0056  -2.9501  -2.9204  -2.8432
    -2.8001  -2.7675  -2.6818  -2.6574  -2.6343  -2.6069  -2.5425  -2.4958
    -2.4609  -2.4278  -2.3636  -2.3236  -2.2534  -2.2266  -2.1841  -2.1469
    -2.0768  -2.0629  -1.9772  -1.9394  -1.9183  -1.8624  -1.8174  -1.7847
    -1.7641  -1.7439  -1.7197  -1.6939  -1.6765  -1.6293  -1.6045  -1.5795
    -1.5648  -1.5256  -1.4922  -1.4375  -1.4249  -1.3896  -1.3436  -1.3077
    -1.2827  -1.2352  -1.2009  -1.1857  -1.1665  -1.1237  -1.0748  -1.0498
    -1.0195  -0.9843  -0.9448  -0.9206  -0.8993  -0.8386  -0.7907  -0.7823
    -0.7670  -0.7416  -0.7196  -0.6657  -0.6233  -0.6076  -0.5747  -0.5515
    -0.5226  -0.5030  -0.4714  -0.4609  -0.4497  -0.4227  -0.4051  -0.3668
    -0.3466  -0.3254  -0.3027  -0.2972  -0.2847  -0.2662  -0.2443  -0.2049
    -0.1046  -0.0800  -0.0029   0.0353   0.0737   0.1201   0.1529   0.1642
     0.1896   0.2151   0.2510   0.2790   0.3189   0.3367   0.3587   0.4043
     0.4178   0.4435   0.4893   0.5277   0.5529   0.5957   0.6201   0.6465
     0.6880   0.7634   0.8329   0.8703   0.8937   0.9138   0.9318   0.9611
     0.9789   1.0089   1.0488   1.0810   1.1131   1.1303   1.1433   1.1872
     1.2263   1.2383   1.2686   1.3145   1.4134   1.4357   1.4673   1.5669
     1.6013   1.6225   1.6684   1.7090   1.7301   1.7809   1.7989   1.8657
     1.8756   1.9272   1.9533   1.9640   1.9984   2.0260   2.0615   2.0954
     2.1221   2.1329   2.1658   2.1806   2.2280   2.2342   2.2624   2.3229
     2.3701   2.3932   2.4195   2.4510   2.4723   2.4946   2.5230   2.5362
     2.6773   2.7572   2.8838   3.4090   3.5908   3.6667   3.8232   3.8411
     3.9485   4.0173   4.1583   4.3917   4.5705   4.6799   4.7246   4.9545
     5.0823   5.1500   5.2915   5.3514   5.5173   5.6672   5.7320   5.9087
     5.9456   5.9946   6.6005   6.6383   6.7580

     the Fermi energy is     2.2490 ev

!    total energy              =  -27792.08140938 Ry

     total all-electron energy =  -1326794.375025 Ry
     estimated scf accuracy    <       0.00000020 Ry
     smearing contrib. (-TS)   =       0.00415157 Ry
     internal energy E=F+TS    =  -27792.08556095 Ry

     The total energy is F=E-TS. E is the sum of the following terms:
     one-electron contribution =  -23263.11821235 Ry
     hartree contribution      =   11937.32834164 Ry
     xc contribution           =    -899.53334243 Ry
     ewald contribution        =    9920.38168506 Ry
     one-center paw contrib.   =  -25487.14403287 Ry

     convergence has been achieved in  17 iterations

[...]

     Forces acting on atoms (cartesian axes, Ry/au):

     atom    1 type  1   force =     0.00095776    0.00054601   -0.00492247
     atom    2 type  1   force =    -0.00010018    0.00012984   -0.00380479
     atom    3 type  1   force =    -0.00002287    0.00037270   -0.00403596
     atom    4 type  1   force =     0.00007083   -0.00013832   -0.00379814
     atom    5 type  1   force =     0.00067630    0.00040267   -0.00384153
     atom    6 type  1   force =    -0.00000765    0.00046952   -0.00406315
     atom    7 type  1   force =     0.00031477   -0.00021166   -0.00403216
     atom    8 type  1   force =     0.00039613   -0.00023543   -0.00405814
     atom    9 type  1   force =    -0.00136054   -0.00078679   -0.00540250
     atom   10 type  1   force =    -0.00198473   -0.00115099    0.00627005
     atom   11 type  1   force =     0.00104514    0.00111846    0.00634247
     atom   12 type  1   force =    -0.00092347   -0.00176329    0.00639714
     atom   13 type  1   force =     0.00149434    0.00035690    0.00632932
     atom   14 type  1   force =    -0.00314337   -0.00180546    0.00828178
     atom   15 type  1   force =     0.00010865   -0.00002789   -0.00012822
     atom   16 type  1   force =    -0.00198727    0.00006807    0.00639064
     atom   17 type  1   force =     0.00002026    0.00009266   -0.00012478
     atom   18 type  1   force =     0.00594522    0.00341486   -0.00241566
     atom   19 type  1   force =     0.00017071    0.00027737    0.00014332
     atom   20 type  1   force =    -0.00015022   -0.00009358    0.00051363
     atom   21 type  1   force =     0.00011973    0.00019397    0.00011401
     atom   22 type  1   force =     0.00018169   -0.00052274    0.00004396
     atom   23 type  1   force =     0.00022431    0.00000152    0.00011489
     atom   24 type  1   force =     0.00020801    0.00011654    0.00032563
     atom   25 type  1   force =     0.00010498    0.00006469    0.00099403
     atom   26 type  1   force =     0.00033339    0.00001378    0.00013426
     atom   27 type  1   force =    -0.00035959    0.00041921    0.00002485
     atom   28 type  1   force =     0.00061808    0.00035989   -0.00051050
     atom   29 type  1   force =    -0.00002306    0.00029027    0.00034290
     atom   30 type  1   force =    -0.00002642    0.00005364    0.00007230
     atom   31 type  1   force =     0.00022986   -0.00013505    0.00033019
     atom   32 type  1   force =    -0.00093703   -0.00054738    0.00088403
     atom   33 type  1   force =     0.00014909   -0.00009166    0.00009335
     atom   34 type  1   force =     0.00002811   -0.00005724    0.00006923
     atom   35 type  1   force =     0.00000396    0.00017173    0.00009981
     atom   36 type  1   force =     0.00004296    0.00000676   -0.00024102
     atom   37 type  2   force =     0.00051503    0.00029212    0.00237731
     atom   38 type  2   force =    -0.00293292   -0.00166569   -0.00531007

     Total force =     0.007163     Total SCF correction =     0.000678

[...]

     negative rho (up, down):  1.208E-02 0.000E+00

     negative rho (up, down):  1.208E-02 0.000E+00
 BEEFens 2000 ensemble energies
             -0.601280869374942E+02
             -0.359544729117312E+01
             -0.157325255843892E+02
              0.425735245781724E+02
             -0.219364177503977E+02
             -0.204070659006254E+02
             -0.348226925809363E+02
             -0.856916721795347E+02
             -0.462577178165146E+02
             -0.470160583984620E+02
             -0.366230921039507E+02
              0.219130697747589E+01
              0.403424133767268E+01
              0.767662433210148E+01
              0.262749121799442E+01
              0.471098876247618E+02
             -0.207413724278128E+02
             -0.229915701575988E+02
              0.191032179234948E+02
             -0.111473124272059E+03
              0.531677684384677E+02
             -0.288415865681901E+02
             -0.329976137351160E+01
             -0.113425427363281E+02
             -0.889179530644594E+01
             -0.464599068702083E+01
              0.875663500815015E+02
             -0.184713094936586E+02
             -0.895876635421519E+01
             -0.513812111614979E+02
              0.810568786329172E+02
             -0.187353658754077E+02
             -0.371767199279237E+02
              0.248048111300437E+02
             -0.281922320881461E+01
              0.161401416508585E+02
             -0.489045568452400E+01
              0.108276735381766E+02
              0.284640214418767E+02
             -0.102501107817870E+03
              0.553769643778956E+02
              0.141291647270012E+02
             -0.158586476387796E+01
             -0.359240593733084E+02
              0.122213496425707E+02
             -0.144866320690639E+02
              0.394287449237713E+02
              0.362099296547017E+02
             -0.306885365575438E+02
             -0.272616873648126E+02
             -0.325815800814363E+02
             -0.348920928432678E+02
              0.133936939325485E+02
             -0.486741059724949E+02
              0.114083076306964E+02
              0.617883218557454E+02
              0.628851637215604E+02
              0.353142922731137E+02
              0.152977737961391E+02
              0.267495716923567E+02
[...]
             -0.699770309098936E+02
             -0.974867209651393E+00
             -0.246641709608926E+01
             -0.873799590181989E+01
             -0.181048347560028E+01
             -0.647620428810922E+02
             -0.210428091417684E+02
              0.525842064835020E+01
              0.883184929960944E+01
              0.464570285072342E+02
             -0.394131046375348E+02
              0.653360388603240E+02
             -0.422075764532255E+02
              0.207846159920141E+02
              0.346696974938102E+02

 BEEF-vdW xc energy contributions
           1 :   -777.042742881584
           2 :    714.542949005545
           3 :   -605.978966430515
           4 :    477.679944664386
           5 :   -356.770168786001
           6 :    263.026483760072
           7 :   -204.243391364770
           8 :    176.104450346367
           9 :   -166.129181763310
          10 :    159.785952875453
          11 :   -146.257599642210
          12 :    121.688744078025
          13 :   -89.0721325774612
          14 :    55.3794318377904
          15 :   -27.5939233914308
          16 :    9.45462605761804
          17 :  -0.181870531411846
          18 :   -4.57001980285349
          19 :    10.2447402777578
          20 :   -20.7014793183524
          21 :    36.5481049572634
          22 :   -55.1495646948496
          23 :    72.1382122037500
          24 :   -83.5968454395811
          25 :    87.8424390354644
          26 :   -86.0298200513932
          27 :    81.3916844198299
          28 :   -77.5731464397353
          29 :    76.8974719697468
          30 :   -79.3871691442741
          31 :   -85.0657816866772
          32 :   -65.3443118828096

     Writing output data file ./pwscf.save/

     General routines

     Parallel routines

   This run was terminated on:  18:47:33  20Dec2022

   JOB DONE.