     Program PWSCF v.6.7MaX starts on 20May2022 at 16:34:13

     Reading input from ccch2-bi-ensemble.in
Warning: card &CELL ignored
Warning: card / ignored

     Current dimensions of program PWSCF are:
     Max number of different atomic species (ntypx) = 10
     Max number of k-points (npk) =  40000
     Max angular momentum in pseudopotentials (lmaxx) =  3
     file Pt.pbe-n-kjpaw_psl.1.0.0.UPF: wavefunction(s)  6S 5D renormalized
     file C.pbe-n-kjpaw_psl.1.0.0.UPF: wavefunction(s)  2S 2P renormalized
     file H.pbe-kjpaw_psl.1.0.0.UPF: wavefunction(s)  1S renormalized

     IMPORTANT: XC functional enforced from input :
     Exchange-correlation= BEEF-VDW
                           (   1   4  43  14   2   0   0)
     Any further DFT definition will be discarded
     Please, verify this is what you really want

     Subspace diagonalization in iterative solution of the eigenvalue problem:
     a serial algorithm will be used

     bravais-lattice index     =            0
     lattice parameter (alat)  =      16.0349  a.u.
     unit-cell volume          =   11204.0590 (a.u.)^3
     number of atoms/cell      =           41
     number of atomic types    =            3
     number of electrons       =       374.00
     number of Kohn-Sham states=          224
     kinetic-energy cutoff     =      60.0000  Ry
     charge density cutoff     =     240.0000  Ry
     scf convergence threshold =      1.0E-06
     mixing beta               =       0.7000
     number of iterations used =            8  local-TF  mixing
     Exchange-correlation= BEEF-VDW
                           (   1   4  43  14   2   0   0)

     celldm(1)=  16.034858  celldm(2)=   0.000000  celldm(3)=   0.000000
     celldm(4)=   0.000000  celldm(5)=   0.000000  celldm(6)=   0.000000

     crystal axes: (cart. coord. in units of alat)
               a(1) = (   1.000000   0.000000   0.000000 )
               a(2) = (   0.500000   0.866025   0.000000 )
               a(3) = (   0.000000   0.000000   3.137975 )

     reciprocal axes: (cart. coord. in units 2 pi/alat)
               b(1) = (  1.000000 -0.577350  0.000000 )
               b(2) = (  0.000000  1.154701  0.000000 )
               b(3) = (  0.000000  0.000000  0.318677 )

     PseudoPot. # 1 for Pt read from file:
     /users/bkreitz1/quantum-espresso/potentials/Pt.pbe-n-kjpaw_psl.1.0.0.UPF
     MD5 check sum: 04dc8a03c51ece93fc7b5889c2958091
     Pseudo is Projector augmented-wave + core cor, Zval = 10.0
     Generated using 'atomic' code by A. Dal Corso  v.6.7MaX
     Shape of augmentation charge: PSQ
     Using radial grid of 1277 points,  6 beta functions with:
                l(1) =   0
                l(2) =   0
                l(3) =   1
                l(4) =   1
                l(5) =   2
                l(6) =   2
     Q(r) pseudized with 0 coefficients

     PseudoPot. # 2 for C  read from file:
     /users/bkreitz1/quantum-espresso/potentials/C.pbe-n-kjpaw_psl.1.0.0.UPF
     MD5 check sum: a169b0ebad56f5ec0d79c4633f80bf22
     Pseudo is Projector augmented-wave + core cor, Zval =  4.0
     Generated using 'atomic' code by A. Dal Corso  v.6.7MaX
     Shape of augmentation charge: PSQ
     Using radial grid of 1073 points,  4 beta functions with:
                l(1) =   0
                l(2) =   0
                l(3) =   1
                l(4) =   1
     Q(r) pseudized with 0 coefficients

     PseudoPot. # 3 for H  read from file:
     /users/bkreitz1/quantum-espresso/potentials/H.pbe-kjpaw_psl.1.0.0.UPF
     MD5 check sum: ae98473e6dc62675f0d0baffdab24f65
     Pseudo is Projector augmented-wave, Zval =  1.0
     Generated using 'atomic' code by A. Dal Corso  v.6.7MaX
     Shape of augmentation charge: PSQ
     Using radial grid of  929 points,  2 beta functions with:
                l(1) =   0
                l(2) =   0
     Q(r) pseudized with 0 coefficients

     atomic species   valence    mass     pseudopotential
        Pt            10.00   195.08400     Pt( 1.00)
        C              4.00    12.01100     C ( 1.00)
        H              1.00     1.00800     H ( 1.00)

     No symmetry found

   Cartesian axes

     site n.     atom                  positions (alat units)
         1           Pt  tau(   1) = (   0.0000000   0.0000000   1.0017346  )
         2           Pt  tau(   2) = (   0.3333333   0.0000000   1.0017346  )
         3           Pt  tau(   3) = (   0.6666667   0.0000000   1.0017346  )
         4           Pt  tau(   4) = (   0.1666667   0.2886751   1.0017346  )
         5           Pt  tau(   5) = (   0.5000000   0.2886751   1.0017346  )
         6           Pt  tau(   6) = (   0.8333333   0.2886751   1.0017346  )
         7           Pt  tau(   7) = (   0.3333333   0.5773503   1.0017346  )
         8           Pt  tau(   8) = (   0.6666667   0.5773503   1.0017346  )
         9           Pt  tau(   9) = (   1.0000000   0.5773503   1.0017346  )
        10           Pt  tau(  10) = (   0.1666667   0.0962250   1.2739001  )
        11           Pt  tau(  11) = (   0.5000000   0.0962250   1.2739001  )
        12           Pt  tau(  12) = (   0.8333333   0.0962250   1.2739001  )
        13           Pt  tau(  13) = (   0.3333333   0.3849002   1.2739001  )
        14           Pt  tau(  14) = (   0.6666667   0.3849002   1.2739001  )
        15           Pt  tau(  15) = (   1.0000000   0.3849002   1.2739001  )
        16           Pt  tau(  16) = (   0.5000000   0.6735753   1.2739001  )
        17           Pt  tau(  17) = (   0.8333333   0.6735753   1.2739001  )
        18           Pt  tau(  18) = (   1.1666667   0.6735753   1.2739001  )
        19           Pt  tau(  19) = (  -0.0025794   0.1932948   1.5453585  )
        20           Pt  tau(  20) = (   0.3313782   0.1909282   1.5394135  )
        21           Pt  tau(  21) = (   0.6666151   0.1935987   1.5465394  )
        22           Pt  tau(  22) = (   0.1667436   0.4819521   1.5408842  )
        23           Pt  tau(  23) = (   0.4992827   0.4837935   1.5449724  )
        24           Pt  tau(  24) = (   0.8328355   0.4824681   1.5458213  )
        25           Pt  tau(  25) = (   0.3292983   0.7738794   1.5483756  )
        26           Pt  tau(  26) = (   0.6652318   0.7649272   1.5477703  )
        27           Pt  tau(  27) = (   1.0020534   0.7726780   1.5456745  )
        28           Pt  tau(  28) = (   0.0046558  -0.0048823   1.8207699  )
        29           Pt  tau(  29) = (   0.3307452  -0.0036822   1.8172466  )
        30           Pt  tau(  30) = (   0.6686945   0.0011152   1.8545929  )
        31           Pt  tau(  31) = (   0.1691524   0.2881078   1.8145761  )
        32           Pt  tau(  32) = (   0.4831970   0.2923602   1.8108145  )
        33           Pt  tau(  33) = (   0.8568766   0.2878475   1.8244634  )
        34           Pt  tau(  34) = (   0.3281459   0.5841641   1.8168938  )
        35           Pt  tau(  35) = (   0.6654441   0.5801847   1.8436389  )
        36           Pt  tau(  36) = (   1.0044448   0.5831638   1.8135544  )
        37           C   tau(  37) = (   0.6423271   0.2084538   1.9612385  )
        38           C   tau(  38) = (   0.7175253   0.3439304   2.0106950  )
        39           C   tau(  39) = (   0.6962628   0.4935189   2.0836006  )
        40           H   tau(  40) = (   0.5904070   0.5094851   2.1541471  )
        41           H   tau(  41) = (   0.8009260   0.5512682   2.1300915  )

     number of k points=    13  Marzari-Vanderbilt smearing, width (Ry)=  0.0200
                       cart. coord. in units 2pi/alat
        k(    1) = (   0.0000000   0.0000000   0.0000000), wk =   0.0800000
        k(    2) = (   0.0000000   0.2309401   0.0000000), wk =   0.1600000
        k(    3) = (   0.0000000   0.4618802   0.0000000), wk =   0.1600000
        k(    4) = (   0.2000000  -0.1154701   0.0000000), wk =   0.1600000
        k(    5) = (   0.2000000   0.1154701   0.0000000), wk =   0.1600000
        k(    6) = (   0.2000000   0.3464102   0.0000000), wk =   0.1600000
        k(    7) = (   0.2000000  -0.5773503   0.0000000), wk =   0.1600000
        k(    8) = (   0.2000000  -0.3464102   0.0000000), wk =   0.1600000
        k(    9) = (   0.4000000  -0.2309401   0.0000000), wk =   0.1600000
        k(   10) = (   0.4000000  -0.0000000   0.0000000), wk =   0.1600000
        k(   11) = (   0.4000000   0.2309401   0.0000000), wk =   0.1600000
        k(   12) = (   0.4000000  -0.6928203   0.0000000), wk =   0.1600000
        k(   13) = (   0.4000000  -0.4618802   0.0000000), wk =   0.1600000

     Check: negative core charge=   -0.000002

     Initial potential from superposition of free atoms

     starting charge  373.99375, renormalised to  374.00000

     negative rho (up, down):  1.150E-02 0.000E+00

     %%%%%%%%%%%%%%%%%%%%%%%%%%%%%%%%%%%%%%%%%%%%%%%%%%%%%%%%%%%%%%%%%%%%%%%%
     %                                                                      %
     % You are using vdW-DF, which was implemented by the Thonhauser group. %
     % Please cite the following two papers that made this development      %
     % possible and the two reviews that describe the various versions:     %
     %                                                                      %
     %   T. Thonhauser et al., PRL 115, 136402 (2015).                      %
     %   T. Thonhauser et al., PRB 76, 125112 (2007).                       %
     %   K. Berland et al., Rep. Prog. Phys. 78, 066501 (2015).             %
     %   D.C. Langreth et al., J. Phys.: Condens. Matter 21, 084203 (2009). %
     %                                                                      %
     %                                                                      %
     % If you are calculating the stress with vdW-DF, please also cite:     %
     %                                                                      %
     %   R. Sabatini et al., J. Phys.: Condens. Matter 24, 424209 (2012).   %
     %                                                                      %
     %%%%%%%%%%%%%%%%%%%%%%%%%%%%%%%%%%%%%%%%%%%%%%%%%%%%%%%%%%%%%%%%%%%%%%%%

     Starting wfcs are  338 randomized atomic wfcs
     Checking if some PAW data can be deallocated...

     Self-consistent Calculation

     iteration #  1     ecut=    60.00 Ry     beta= 0.70
     Davidson diagonalization with overlap
     ethr =  1.00E-02,  avg # of iterations =  2.0

     Threshold (ethr) on eigenvalues was too large:
     Diagonalizing with lowered threshold

     Davidson diagonalization with overlap
     ethr =  8.70E-04,  avg # of iterations =  2.2

[...]

     total energy              =  -27813.16866496 Ry
     estimated scf accuracy    <       3.54458666 Ry

[...]

     iteration #  5     ecut=    60.00 Ry     beta= 0.70
     Davidson diagonalization with overlap
     c_bands:  1 eigenvalues not converged
     c_bands:  1 eigenvalues not converged
     ethr =  3.06E-05,  avg # of iterations = 10.6

[...]

     iteration # 11     ecut=    60.00 Ry     beta= 0.70
     Davidson diagonalization with overlap
     c_bands:  1 eigenvalues not converged
     c_bands:  1 eigenvalues not converged
     ethr =  3.02E-07,  avg # of iterations =  8.9

[...]

     total energy              =  -27813.58811907 Ry
     estimated scf accuracy    <       0.00000136 Ry

     iteration # 20     ecut=    60.00 Ry     beta= 0.70
     Davidson diagonalization with overlap
     ethr =  3.65E-10,  avg # of iterations =  1.0

[...]

     End of self-consistent calculation

          k = 0.0000 0.0000 0.0000 ( 88025 PWs)   bands (ev):

   -14.3181 -11.5001  -7.0354  -6.6376  -5.6165  -5.2807  -5.0875  -4.5847
    -4.3236  -4.2726  -4.2660  -4.2467  -4.2374  -4.1957  -4.1454  -4.0128
    -3.7865  -3.7360  -3.6971  -3.6880  -3.6540  -3.6014  -3.4403  -3.3710
    -3.3348  -3.2369  -3.1673  -3.1309  -3.1056  -3.0555  -3.0420  -3.0223
    -3.0029  -2.9685  -2.9084  -2.8982  -2.8619  -2.8482  -2.8310  -2.7796
    -2.7587  -2.7539  -2.7198  -2.7025  -2.6340  -2.5778  -2.4937  -2.3426
    -2.2910  -2.2139  -2.1932  -2.1702  -2.1614  -2.1376  -2.1125  -2.0548
    -2.0210  -1.9252  -1.9165  -1.8813  -1.8415  -1.6421  -1.5574  -1.5010
    -1.4478  -1.4308  -1.4044  -1.3738  -1.3162  -1.2904  -1.2769  -1.2402
    -1.2100  -1.1902  -1.1670  -1.1486  -1.1478  -1.1333  -1.1211  -1.0989
    -1.0804  -1.0666  -1.0577  -1.0426  -1.0205  -1.0005  -0.9766  -0.9595
    -0.9328  -0.9068  -0.8728  -0.8133  -0.7997  -0.7523  -0.7209  -0.7160
    -0.6868  -0.6797  -0.6759  -0.6459  -0.6274  -0.6017  -0.5644  -0.5160
    -0.5149  -0.5067  -0.4779  -0.4746  -0.4144  -0.3938  -0.3645  -0.3501
    -0.3152  -0.2587  -0.1853  -0.0654  -0.0229  -0.0079   0.0792   0.1351
     0.1581   0.1887   0.2463   0.2743   0.2805   0.3227   0.3402   0.3575
     0.3863   0.3888   0.3996   0.4114   0.4349   0.4785   0.5237   0.6221
     0.6598   0.6692   0.6894   0.7314   0.7935   0.8375   0.8596   0.8732
     0.8817   0.9071   0.9384   0.9507   0.9828   1.0101   1.0708   1.1171
     1.1500   1.1745   1.1943   1.2120   1.2406   1.2631   1.3190   1.3273
     1.3363   1.3491   1.3513   1.3730   1.3909   1.3931   1.4047   1.4146
     1.4255   1.4474   1.4794   1.5103   1.5403   1.5487   1.5798   1.5947
     1.5951   1.6259   1.6592   1.6749   1.6983   1.7047   1.7185   1.7282
     1.7351   1.7674   1.7835   1.8018   1.8217   1.8320   1.8876   1.8911
     1.9423   2.0313   2.0708   2.1002   2.1120   2.1576   2.1632   2.1900
     2.2203   2.3009   2.5234   2.6960   2.9378   3.0218   3.0429   3.3505
     3.4899   3.9934   4.8406   4.9189   5.2792   5.3375   5.6004   5.7329
     6.0994   6.2063   6.5236   6.8258   6.8768   6.9678   6.9979   7.0124

[...]

          k = 0.4000-0.4619 0.0000 ( 87940 PWs)   bands (ev):

   -14.3166 -11.4995  -6.9960  -5.7901  -5.7080  -5.3074  -5.2326  -5.0499
    -4.5884  -4.4274  -4.2268  -3.9712  -3.8701  -3.7954  -3.7808  -3.7067
    -3.6311  -3.6026  -3.5484  -3.5294  -3.4809  -3.4221  -3.4085  -3.3889
    -3.3638  -3.3352  -3.2768  -3.2455  -3.2014  -3.1681  -3.1587  -3.1447
    -3.0679  -3.0136  -2.9445  -2.9124  -2.8971  -2.8086  -2.7831  -2.7622
    -2.7395  -2.6473  -2.6123  -2.5589  -2.5356  -2.4376  -2.3872  -2.3611
    -2.3239  -2.2771  -2.2471  -2.1910  -2.1253  -2.0907  -2.0670  -2.0338
    -2.0066  -1.9315  -1.9104  -1.8955  -1.8691  -1.8345  -1.8140  -1.7821
    -1.7398  -1.7295  -1.6944  -1.6810  -1.6600  -1.6144  -1.5859  -1.5481
    -1.4994  -1.4595  -1.4258  -1.3865  -1.3445  -1.3251  -1.3149  -1.2796
    -1.2625  -1.2143  -1.1673  -1.1387  -1.1007  -1.0698  -1.0549  -1.0295
    -0.9820  -0.9322  -0.9137  -0.9000  -0.8790  -0.8675  -0.8020  -0.7737
    -0.7282  -0.7027  -0.6755  -0.6544  -0.6277  -0.6124  -0.5988  -0.5848
    -0.5662  -0.5574  -0.5160  -0.4965  -0.4577  -0.4475  -0.4341  -0.4245
    -0.4049  -0.3809  -0.3545  -0.2931  -0.2396  -0.2105  -0.1422  -0.0942
    -0.0263   0.0152   0.0255   0.0337   0.0755   0.1157   0.1278   0.1592
     0.1968   0.2247   0.2682   0.2854   0.3074   0.3372   0.3687   0.4280
     0.4534   0.4928   0.5071   0.5702   0.6161   0.6615   0.7146   0.7278
     0.7803   0.7918   0.8010   0.8429   0.8625   0.9080   0.9323   0.9773
     0.9917   1.0029   1.0237   1.0785   1.1019   1.1231   1.1857   1.2344
     1.2696   1.3280   1.4134   1.4489   1.4873   1.5375   1.5641   1.6095
     1.6491   1.6992   1.7255   1.7592   1.7996   1.8346   1.8448   1.8690
     1.8940   1.9402   1.9682   1.9965   2.0085   2.0323   2.0429   2.0839
     2.1040   2.1447   2.1913   2.2256   2.2505   2.2999   2.3211   2.3453
     2.3726   2.3966   2.4822   2.5540   2.6582   2.9633   3.1546   3.4443
     3.5399   3.6471   3.7323   3.8305   3.8895   4.0220   4.1523   4.3109
     4.5534   4.6081   4.7701   4.9872   5.0645   5.1426   5.1890   5.3785
     5.4029   5.4922   5.6565   5.8056   5.9648   6.1446   6.4103   6.5196

     the Fermi energy is     2.1181 ev

!    total energy              =  -27813.58811877 Ry

     total all-electron energy =  -1326873.645822 Ry
     estimated scf accuracy    <       0.00000043 Ry
     smearing contrib. (-TS)   =       0.00188307 Ry
     internal energy E=F+TS    =  -27813.59000185 Ry

     The total energy is F=E-TS. E is the sum of the following terms:
     one-electron contribution =  -26507.98420769 Ry
     hartree contribution      =   13559.92337027 Ry
     xc contribution           =    -905.95309224 Ry
     ewald contribution        =   11534.10344965 Ry
     one-center paw contrib.   =  -25493.67952183 Ry

     convergence has been achieved in  20 iterations

[...]

     Forces acting on atoms (cartesian axes, Ry/au):

     atom    1 type  1   force =     0.00054681    0.00062192   -0.00376677
     atom    2 type  1   force =     0.00214042   -0.00164958   -0.00567254
     atom    3 type  1   force =    -0.00044974   -0.00027757   -0.00378994
     atom    4 type  1   force =    -0.00066870    0.00125908   -0.00639841
     atom    5 type  1   force =    -0.00023270   -0.00037448   -0.00363478
     atom    6 type  1   force =     0.00065562   -0.00006600   -0.00378843
     atom    7 type  1   force =     0.00008158   -0.00006586   -0.00320978
     atom    8 type  1   force =     0.00088824   -0.00093194   -0.00516035
     atom    9 type  1   force =     0.00007099   -0.00015622   -0.00442444
     atom   10 type  1   force =    -0.00295484   -0.00339501   -0.00014457
     atom   11 type  1   force =     0.00070804   -0.00120800    0.00360231
     atom   12 type  1   force =     0.00072606   -0.00073103    0.00941609
     atom   13 type  1   force =    -0.00024077   -0.00040043   -0.00158788
     atom   14 type  1   force =    -0.00055778    0.00204038    0.00748079
     atom   15 type  1   force =    -0.00020232   -0.00299446    0.00107684
     atom   16 type  1   force =     0.00040390    0.00273394    0.00758880
     atom   17 type  1   force =    -0.00281821    0.00194144    0.00488358
     atom   18 type  1   force =     0.00055222    0.00336049    0.00721008
     atom   19 type  1   force =     0.00034678   -0.00007538    0.00012645
     atom   20 type  1   force =     0.00011564   -0.00012514   -0.00011185
     atom   21 type  1   force =    -0.00009220    0.00004920   -0.00005282
     atom   22 type  1   force =    -0.00016819    0.00011948   -0.00022541
     atom   23 type  1   force =     0.00026198    0.00001514    0.00034270
     atom   24 type  1   force =     0.00000158    0.00023777    0.00005939
     atom   25 type  1   force =    -0.00015518   -0.00003211    0.00002476
     atom   26 type  1   force =     0.00038412    0.00017755   -0.00034155
     atom   27 type  1   force =    -0.00002441    0.00010408    0.00009348
     atom   28 type  1   force =    -0.00002678    0.00014060    0.00021983
     atom   29 type  1   force =     0.00018854   -0.00004733   -0.00002895
     atom   30 type  1   force =     0.00017363    0.00028110    0.00032644
     atom   31 type  1   force =    -0.00022302   -0.00006090   -0.00012758
     atom   32 type  1   force =    -0.00003843    0.00012732   -0.00035621
     atom   33 type  1   force =    -0.00005935    0.00004066    0.00021938
     atom   34 type  1   force =     0.00009879    0.00001249   -0.00000830
     atom   35 type  1   force =    -0.00000449    0.00032432    0.00029016
     atom   36 type  1   force =    -0.00018456    0.00018803    0.00019140
     atom   37 type  2   force =     0.00376196   -0.00096347    0.00025642
     atom   38 type  2   force =    -0.00159134   -0.00084669    0.00146191
     atom   39 type  2   force =     0.00231423    0.00283967    0.00089663
     atom   40 type  3   force =    -0.00016319   -0.00041517    0.00005534
     atom   41 type  3   force =    -0.00356497   -0.00179789   -0.00299221

     Total force =     0.007850     Total SCF correction =     0.002398
     SCF correction compared to forces is large: reduce conv_thr to get better values

[...]

     negative rho (up, down):  1.262E-02 0.000E+00

     negative rho (up, down):  1.262E-02 0.000E+00
 BEEFens 2000 ensemble energies
             -0.606222374296354E+02
             -0.361780562827954E+01
             -0.158368148636586E+02
              0.428995961101588E+02
             -0.220867196899385E+02
             -0.205232545210536E+02
             -0.351759386385040E+02
             -0.864221045954207E+02
             -0.465004089099937E+02
             -0.472596448098124E+02
             -0.368997012340162E+02
              0.224597485750206E+01
              0.407775635144597E+01
              0.762982750271152E+01
              0.265856888844624E+01
              0.474548075486330E+02
             -0.208775298354541E+02
             -0.230517181343347E+02
              0.192915672401143E+02
             -0.112288872036430E+03
              0.535862309499800E+02
             -0.289675994428521E+02
             -0.334286611773057E+01
             -0.113952438870986E+02
             -0.886380250533978E+01
             -0.466727893494954E+01
              0.882085845939950E+02
             -0.186535668189551E+02
             -0.901855961738693E+01
             -0.518091570213308E+02
              0.815391377378323E+02
             -0.187543152134736E+02
             -0.374822939692637E+02
              0.249310264239968E+02
             -0.283427119528432E+01
              0.163756110326129E+02
             -0.485871541560903E+01
              0.108140107555442E+02
              0.287750546743355E+02
             -0.103224087476135E+03
              0.557786516321359E+02
              0.142236993399868E+02
             -0.168221261128554E+01
             -0.361485022396422E+02
              0.123068236982206E+02
             -0.146254054448491E+02
              0.398077036556131E+02
              0.364599215860344E+02
             -0.308057909829969E+02
             -0.275017170286163E+02
             -0.328209852347245E+02
             -0.351686917065346E+02
              0.135777091781826E+02
             -0.490663903848184E+02
              0.115335374571780E+02
              0.622526178642852E+02
              0.634584029558371E+02
              0.355435429454449E+02
              0.154100910548040E+02
              0.270016811310164E+02
[...]
             -0.705464077638389E+02
             -0.935260844056415E+00
             -0.245675676573821E+01
             -0.882069824457665E+01
             -0.178019183574651E+01
             -0.652315721033655E+02
             -0.210889351890703E+02
              0.536827869094562E+01
              0.894981884380013E+01
              0.468355223847717E+02
             -0.397384312591452E+02
              0.657027858002502E+02
             -0.424919100862760E+02
              0.209962087134099E+02
              0.349959717261785E+02

 BEEF-vdW xc energy contributions
           1 :   -782.354123719432
           2 :    719.026047999844
           3 :   -609.168970649329
           4 :    479.529921358532
           5 :   -357.515956689923
           6 :    263.043516396738
           7 :   -203.923966703668
           8 :    175.753532263945
           9 :   -165.902074793330
          10 :    159.686243140196
          11 :   -146.194255352903
          12 :    121.560998699447
          13 :   -88.8364480810465
          14 :    55.0720969892378
          15 :   -27.3086202330558
          16 :    9.29164110205693
          17 :  -0.194994166094261
          18 :   -4.40039666817211
          19 :    9.99880943416633
          20 :   -20.4792038161750
          21 :    36.4255065648780
          22 :   -55.1518576432549
          23 :    72.2389790652317
          24 :   -83.7408408973739
          25 :    87.9775636225830
          26 :   -86.1295085545647
          27 :    81.4577267001491
          28 :   -77.6218010021502
          29 :    76.9419208606193
          30 :   -79.4272442875525
          31 :   -85.7980047729096
          32 :   -65.8303082138686

     Writing output data file ./pwscf.save/

     General routines

     Parallel routines

   This run was terminated on:  20: 7:36  20May2022

   JOB DONE.