     Program PWSCF v.6.7MaX starts on 20May2022 at 16:35:32

     Reading input from ccch2-mono-ensemble.in
Warning: card &CELL ignored
Warning: card / ignored

     Current dimensions of program PWSCF are:
     Max number of different atomic species (ntypx) = 10
     Max number of k-points (npk) =  40000
     Max angular momentum in pseudopotentials (lmaxx) =  3
     file Pt.pbe-n-kjpaw_psl.1.0.0.UPF: wavefunction(s)  6S 5D renormalized
     file C.pbe-n-kjpaw_psl.1.0.0.UPF: wavefunction(s)  2S 2P renormalized
     file H.pbe-kjpaw_psl.1.0.0.UPF: wavefunction(s)  1S renormalized

     IMPORTANT: XC functional enforced from input :
     Exchange-correlation= BEEF-VDW
                           (   1   4  43  14   2   0   0)
     Any further DFT definition will be discarded
     Please, verify this is what you really want

     Subspace diagonalization in iterative solution of the eigenvalue problem:
     a serial algorithm will be used

     bravais-lattice index     =            0
     lattice parameter (alat)  =      16.0349  a.u.
     unit-cell volume          =   11926.7389 (a.u.)^3
     number of atoms/cell      =           41
     number of atomic types    =            3
     number of electrons       =       374.00
     number of Kohn-Sham states=          224
     kinetic-energy cutoff     =      60.0000  Ry
     charge density cutoff     =     240.0000  Ry
     scf convergence threshold =      1.0E-06
     mixing beta               =       0.7000
     number of iterations used =            8  local-TF  mixing
     Exchange-correlation= BEEF-VDW
                           (   1   4  43  14   2   0   0)

     celldm(1)=  16.034858  celldm(2)=   0.000000  celldm(3)=   0.000000
     celldm(4)=   0.000000  celldm(5)=   0.000000  celldm(6)=   0.000000

     crystal axes: (cart. coord. in units of alat)
               a(1) = (   1.000000   0.000000   0.000000 )
               a(2) = (   0.500000   0.866025   0.000000 )
               a(3) = (   0.000000   0.000000   3.340379 )

     reciprocal axes: (cart. coord. in units 2 pi/alat)
               b(1) = (  1.000000 -0.577350  0.000000 )
               b(2) = (  0.000000  1.154701  0.000000 )
               b(3) = (  0.000000  0.000000  0.299367 )

     PseudoPot. # 1 for Pt read from file:
     /users/bkreitz1/quantum-espresso/potentials/Pt.pbe-n-kjpaw_psl.1.0.0.UPF
     MD5 check sum: 04dc8a03c51ece93fc7b5889c2958091
     Pseudo is Projector augmented-wave + core cor, Zval = 10.0
     Generated using 'atomic' code by A. Dal Corso  v.6.7MaX
     Shape of augmentation charge: PSQ
     Using radial grid of 1277 points,  6 beta functions with:
                l(1) =   0
                l(2) =   0
                l(3) =   1
                l(4) =   1
                l(5) =   2
                l(6) =   2
     Q(r) pseudized with 0 coefficients

     PseudoPot. # 2 for C  read from file:
     /users/bkreitz1/quantum-espresso/potentials/C.pbe-n-kjpaw_psl.1.0.0.UPF
     MD5 check sum: a169b0ebad56f5ec0d79c4633f80bf22
     Pseudo is Projector augmented-wave + core cor, Zval =  4.0
     Generated using 'atomic' code by A. Dal Corso  v.6.7MaX
     Shape of augmentation charge: PSQ
     Using radial grid of 1073 points,  4 beta functions with:
                l(1) =   0
                l(2) =   0
                l(3) =   1
                l(4) =   1
     Q(r) pseudized with 0 coefficients

     PseudoPot. # 3 for H  read from file:
     /users/bkreitz1/quantum-espresso/potentials/H.pbe-kjpaw_psl.1.0.0.UPF
     MD5 check sum: ae98473e6dc62675f0d0baffdab24f65
     Pseudo is Projector augmented-wave, Zval =  1.0
     Generated using 'atomic' code by A. Dal Corso  v.6.7MaX
     Shape of augmentation charge: PSQ
     Using radial grid of  929 points,  2 beta functions with:
                l(1) =   0
                l(2) =   0
     Q(r) pseudized with 0 coefficients

     atomic species   valence    mass     pseudopotential
        Pt            10.00   195.08400     Pt( 1.00)
        C              4.00    12.01100     C ( 1.00)
        H              1.00     1.00800     H ( 1.00)

     No symmetry found

   Cartesian axes

     site n.     atom                  positions (alat units)
         1           Pt  tau(   1) = (   0.0000000   0.0000000   1.0017346  )
         2           Pt  tau(   2) = (   0.3333333   0.0000000   1.0017346  )
         3           Pt  tau(   3) = (   0.6666667   0.0000000   1.0017346  )
         4           Pt  tau(   4) = (   0.1666667   0.2886751   1.0017346  )
         5           Pt  tau(   5) = (   0.5000000   0.2886751   1.0017346  )
         6           Pt  tau(   6) = (   0.8333333   0.2886751   1.0017346  )
         7           Pt  tau(   7) = (   0.3333333   0.5773503   1.0017346  )
         8           Pt  tau(   8) = (   0.6666667   0.5773503   1.0017346  )
         9           Pt  tau(   9) = (   1.0000000   0.5773503   1.0017346  )
        10           Pt  tau(  10) = (   0.1666667   0.0962250   1.2739001  )
        11           Pt  tau(  11) = (   0.5000000   0.0962250   1.2739001  )
        12           Pt  tau(  12) = (   0.8333333   0.0962250   1.2739001  )
        13           Pt  tau(  13) = (   0.3333333   0.3849002   1.2739001  )
        14           Pt  tau(  14) = (   0.6666667   0.3849002   1.2739001  )
        15           Pt  tau(  15) = (   1.0000000   0.3849002   1.2739001  )
        16           Pt  tau(  16) = (   0.5000000   0.6735753   1.2739001  )
        17           Pt  tau(  17) = (   0.8333333   0.6735753   1.2739001  )
        18           Pt  tau(  18) = (   1.1666667   0.6735753   1.2739001  )
        19           Pt  tau(  19) = (  -0.0020268   0.1937932   1.5457072  )
        20           Pt  tau(  20) = (   0.3353699   0.1938011   1.5456908  )
        21           Pt  tau(  21) = (   0.6666598   0.1937633   1.5458911  )
        22           Pt  tau(  22) = (   0.1666687   0.4811432   1.5420943  )
        23           Pt  tau(  23) = (   0.5002781   0.4814075   1.5444294  )
        24           Pt  tau(  24) = (   0.8330425   0.4814061   1.5444489  )
        25           Pt  tau(  25) = (   0.3336151   0.7703824   1.5422690  )
        26           Pt  tau(  26) = (   0.6666673   0.7693201   1.5447029  )
        27           Pt  tau(  27) = (   0.9997086   0.7703886   1.5422692  )
        28           Pt  tau(  28) = (   0.0001172   0.0001075   1.8184037  )
        29           Pt  tau(  29) = (   0.3332174   0.0001203   1.8183797  )
        30           Pt  tau(  30) = (   0.6666619  -0.0026395   1.8169167  )
        31           Pt  tau(  31) = (   0.1666777   0.2890582   1.8183084  )
        32           Pt  tau(  32) = (   0.4931039   0.2846401   1.8280859  )
        33           Pt  tau(  33) = (   0.8402303   0.2846356   1.8281046  )
        34           Pt  tau(  34) = (   0.3302738   0.5794986   1.8161543  )
        35           Pt  tau(  35) = (   0.6666623   0.5858088   1.8242487  )
        36           Pt  tau(  36) = (   1.0030687   0.5795114   1.8161649  )
        37           C   tau(  37) = (   0.6666631   0.3923464   1.9642169  )
        38           C   tau(  38) = (   0.6666655   0.3894876   2.1194461  )
        39           C   tau(  39) = (   0.6666669   0.3900943   2.2740188  )
        40           H   tau(  40) = (   0.5573292   0.3904509   2.3406565  )
        41           H   tau(  41) = (   0.7760054   0.3904524   2.3418337  )

     number of k points=    13  Marzari-Vanderbilt smearing, width (Ry)=  0.0200
                       cart. coord. in units 2pi/alat
        k(    1) = (   0.0000000   0.0000000   0.0000000), wk =   0.0800000
        k(    2) = (   0.0000000   0.2309401   0.0000000), wk =   0.1600000
        k(    3) = (   0.0000000   0.4618802   0.0000000), wk =   0.1600000
        k(    4) = (   0.2000000  -0.1154701   0.0000000), wk =   0.1600000
        k(    5) = (   0.2000000   0.1154701   0.0000000), wk =   0.1600000
        k(    6) = (   0.2000000   0.3464102   0.0000000), wk =   0.1600000
        k(    7) = (   0.2000000  -0.5773503   0.0000000), wk =   0.1600000
        k(    8) = (   0.2000000  -0.3464102   0.0000000), wk =   0.1600000
        k(    9) = (   0.4000000  -0.2309401   0.0000000), wk =   0.1600000
        k(   10) = (   0.4000000  -0.0000000   0.0000000), wk =   0.1600000
        k(   11) = (   0.4000000   0.2309401   0.0000000), wk =   0.1600000
        k(   12) = (   0.4000000  -0.6928203   0.0000000), wk =   0.1600000
        k(   13) = (   0.4000000  -0.4618802   0.0000000), wk =   0.1600000

     Check: negative core charge=   -0.000002

     Initial potential from superposition of free atoms

     starting charge  373.99375, renormalised to  374.00000

     negative rho (up, down):  1.128E-02 0.000E+00

     %%%%%%%%%%%%%%%%%%%%%%%%%%%%%%%%%%%%%%%%%%%%%%%%%%%%%%%%%%%%%%%%%%%%%%%%
     %                                                                      %
     % You are using vdW-DF, which was implemented by the Thonhauser group. %
     % Please cite the following two papers that made this development      %
     % possible and the two reviews that describe the various versions:     %
     %                                                                      %
     %   T. Thonhauser et al., PRL 115, 136402 (2015).                      %
     %   T. Thonhauser et al., PRB 76, 125112 (2007).                       %
     %   K. Berland et al., Rep. Prog. Phys. 78, 066501 (2015).             %
     %   D.C. Langreth et al., J. Phys.: Condens. Matter 21, 084203 (2009). %
     %                                                                      %
     %                                                                      %
     % If you are calculating the stress with vdW-DF, please also cite:     %
     %                                                                      %
     %   R. Sabatini et al., J. Phys.: Condens. Matter 24, 424209 (2012).   %
     %                                                                      %
     %%%%%%%%%%%%%%%%%%%%%%%%%%%%%%%%%%%%%%%%%%%%%%%%%%%%%%%%%%%%%%%%%%%%%%%%

     Starting wfcs are  338 randomized atomic wfcs
     Checking if some PAW data can be deallocated...

     Self-consistent Calculation

     iteration #  1     ecut=    60.00 Ry     beta= 0.70
     Davidson diagonalization with overlap
     ethr =  1.00E-02,  avg # of iterations =  2.0

[...]

     total energy              =  -27812.78450089 Ry
     estimated scf accuracy    <       4.86969134 Ry

[...]

     iteration #  7     ecut=    60.00 Ry     beta= 0.70
     Davidson diagonalization with overlap
     c_bands:  1 eigenvalues not converged
     c_bands:  1 eigenvalues not converged
     c_bands:  1 eigenvalues not converged
     c_bands:  1 eigenvalues not converged
     c_bands:  1 eigenvalues not converged
     c_bands:  1 eigenvalues not converged
     c_bands:  1 eigenvalues not converged
     c_bands:  1 eigenvalues not converged
     ethr =  2.99E-06,  avg # of iterations = 18.5

[...]

     iteration #  8     ecut=    60.00 Ry     beta= 0.70
     Davidson diagonalization with overlap
     c_bands:  1 eigenvalues not converged
     c_bands:  1 eigenvalues not converged
     ethr =  2.22E-06,  avg # of iterations =  6.8

[...]

     total energy              =  -27813.59442529 Ry
     estimated scf accuracy    <       0.00000309 Ry

     iteration # 20     ecut=    60.00 Ry     beta= 0.70
     Davidson diagonalization with overlap
     ethr =  8.27E-10,  avg # of iterations =  1.9

[...]

     End of self-consistent calculation

          k = 0.0000 0.0000 0.0000 ( 93601 PWs)   bands (ev):

   -13.9499 -11.6474  -7.3196  -6.9310  -5.8553  -5.5021  -5.1384  -4.7592
    -4.6907  -4.6821  -4.6575  -4.6431  -4.6405  -4.6180  -4.4629  -4.3663
    -4.2589  -4.1038  -4.1022  -4.1000  -4.0307  -3.9588  -3.9216  -3.6586
    -3.6527  -3.6319  -3.5366  -3.4903  -3.4753  -3.4321  -3.4318  -3.4190
    -3.3217  -3.3150  -3.2980  -3.2256  -3.2225  -3.1884  -3.1780  -3.1570
    -3.1560  -3.1413  -3.1222  -3.1208  -2.9255  -2.8316  -2.6935  -2.5915
    -2.5788  -2.5633  -2.5403  -2.5329  -2.5237  -2.4941  -2.4840  -2.4794
    -2.3311  -2.3268  -2.3245  -2.2208  -2.2095  -1.8263  -1.8247  -1.7920
    -1.7667  -1.7649  -1.7080  -1.6930  -1.6282  -1.6091  -1.5778  -1.5725
    -1.5686  -1.5568  -1.5434  -1.5203  -1.5190  -1.5170  -1.4901  -1.4717
    -1.4676  -1.4560  -1.4535  -1.3952  -1.3700  -1.3694  -1.3589  -1.3550
    -1.3359  -1.1798  -1.1686  -1.1498  -1.1346  -1.1166  -1.1153  -1.1048
    -1.0941  -1.0384  -1.0315  -1.0228  -1.0084  -0.9231  -0.9161  -0.8836
    -0.8754  -0.8650  -0.8050  -0.7587  -0.7492  -0.7445  -0.7382  -0.7135
    -0.7025  -0.5676  -0.4215  -0.2704  -0.2693  -0.2647  -0.2355  -0.2161
    -0.2083  -0.2054  -0.2045  -0.1572  -0.0759  -0.0686  -0.0526  -0.0109
     0.0075   0.0263   0.0300   0.0835   0.0861   0.1661   0.2304   0.2425
     0.2673   0.2752   0.2963   0.3329   0.4713   0.5199   0.5260   0.5279
     0.5547   0.5786   0.5816   0.6384   0.6872   0.7002   0.7395   0.7512
     0.7710   0.7782   0.7899   0.8744   0.8913   0.8971   0.9579   0.9628
     0.9724   0.9734   0.9741   0.9847   0.9951   1.0005   1.0027   1.0864
     1.0904   1.0980   1.0991   1.1054   1.1798   1.1812   1.1816   1.1983
     1.1996   1.2326   1.2440   1.2753   1.3281   1.3310   1.3320   1.3504
     1.3528   1.3682   1.3738   1.4174   1.4285   1.4300   1.4478   1.4712
     1.4861   1.4989   1.6208   1.6663   1.7349   1.7422   1.7681   1.7796
     1.7869   1.7914   2.2109   2.3394   2.5767   2.6456   2.6489   2.6706
     2.7889   3.3133   4.6175   4.7067   4.9553   4.9707   4.9715   5.1730
     5.5434   5.6674   6.2800   6.2959   6.4817   6.5839   6.5948   6.5999

[...]

          k = 0.4000-0.4619 0.0000 ( 93624 PWs)   bands (ev):

   -13.9496 -11.6457  -7.1695  -6.1201  -6.0768  -5.6469  -5.4861  -5.1426
    -4.9155  -4.7665  -4.4554  -4.3211  -4.2610  -4.1880  -4.1159  -4.0471
    -4.0383  -3.9834  -3.9292  -3.8902  -3.8231  -3.8139  -3.7973  -3.7664
    -3.7456  -3.6954  -3.6512  -3.6024  -3.5976  -3.5828  -3.5621  -3.4871
    -3.4461  -3.3467  -3.2971  -3.2616  -3.2268  -3.1943  -3.1537  -3.1425
    -3.0662  -2.9848  -2.9660  -2.9365  -2.8771  -2.7782  -2.7588  -2.7160
    -2.6364  -2.6126  -2.5637  -2.5270  -2.4600  -2.4252  -2.4028  -2.3646
    -2.3504  -2.3056  -2.2768  -2.2525  -2.2007  -2.1900  -2.1606  -2.1455
    -2.1273  -2.1112  -2.0720  -2.0504  -2.0289  -1.9510  -1.9142  -1.8646
    -1.8428  -1.7913  -1.7162  -1.7033  -1.6941  -1.6544  -1.6380  -1.6100
    -1.5988  -1.5431  -1.5193  -1.4954  -1.4539  -1.4332  -1.4083  -1.3297
    -1.3087  -1.2891  -1.2785  -1.2634  -1.2020  -1.1730  -1.1457  -1.1108
    -1.0965  -1.0526  -1.0344  -1.0214  -0.9974  -0.9909  -0.9742  -0.9595
    -0.9353  -0.9172  -0.8845  -0.8778  -0.8530  -0.8407  -0.8338  -0.8192
    -0.7868  -0.7670  -0.6766  -0.5755  -0.5538  -0.5117  -0.4782  -0.4206
    -0.3690  -0.3456  -0.3336  -0.2996  -0.2781  -0.2454  -0.2365  -0.2253
    -0.1813  -0.1407  -0.1252  -0.0946  -0.0681  -0.0093   0.0316   0.0377
     0.0889   0.1121   0.1968   0.2557   0.2705   0.3020   0.3487   0.3791
     0.4009   0.4169   0.4540   0.4665   0.4852   0.4896   0.5780   0.5849
     0.6149   0.6250   0.6767   0.6920   0.7148   0.7412   0.7746   0.8628
     0.9223   0.9779   1.0110   1.0716   1.1280   1.1532   1.1799   1.2177
     1.2463   1.2860   1.3343   1.3796   1.4249   1.4459   1.4698   1.4983
     1.5165   1.5458   1.5576   1.6024   1.6383   1.6557   1.6719   1.7029
     1.7141   1.7246   1.7556   1.8066   1.8492   1.9089   1.9250   1.9411
     1.9652   2.0043   2.0354   2.1110   2.2000   2.6055   2.9265   3.0987
     3.1354   3.3078   3.3440   3.4240   3.4655   3.5807   3.8672   4.0152
     4.1235   4.2323   4.4556   4.5856   4.6031   4.7154   4.8382   4.9855
     5.0093   5.0625   5.2796   5.3730   5.4908   5.8700   6.0134   6.1309

     the Fermi energy is     1.7194 ev

!    total energy              =  -27813.59442554 Ry

     total all-electron energy =  -1326873.652129 Ry
     estimated scf accuracy    <       0.00000071 Ry
     smearing contrib. (-TS)   =       0.00328608 Ry
     internal energy E=F+TS    =  -27813.59771162 Ry

     The total energy is F=E-TS. E is the sum of the following terms:
     one-electron contribution =  -29792.98096438 Ry
     hartree contribution      =   15197.42048144 Ry
     xc contribution           =    -905.81626341 Ry
     ewald contribution        =   13181.41929806 Ry
     one-center paw contrib.   =  -25493.64026333 Ry

     convergence has been achieved in  20 iterations

[...]

     Forces acting on atoms (cartesian axes, Ry/au):

     atom    1 type  1   force =    -0.00123161   -0.00080967   -0.00433953
     atom    2 type  1   force =     0.00130874   -0.00083689   -0.00434068
     atom    3 type  1   force =     0.00001785   -0.00027233   -0.00368822
     atom    4 type  1   force =     0.00001796    0.00199396   -0.00380361
     atom    5 type  1   force =    -0.00047830   -0.00034759   -0.00307546
     atom    6 type  1   force =     0.00055173   -0.00032596   -0.00307798
     atom    7 type  1   force =    -0.00046580   -0.00002021   -0.00419666
     atom    8 type  1   force =     0.00005706    0.00059751   -0.00272561
     atom    9 type  1   force =     0.00050478   -0.00001934   -0.00417065
     atom   10 type  1   force =     0.00001677    0.00308367    0.00115075
     atom   11 type  1   force =    -0.00188835    0.00153532    0.00416524
     atom   12 type  1   force =     0.00195925    0.00157483    0.00419514
     atom   13 type  1   force =     0.00035666   -0.00213763    0.00351595
     atom   14 type  1   force =     0.00006139   -0.00014629    0.00787418
     atom   15 type  1   force =    -0.00034578   -0.00210939    0.00355020
     atom   16 type  1   force =     0.00181171    0.00204715    0.00341757
     atom   17 type  1   force =    -0.00171863    0.00201485    0.00343805
     atom   18 type  1   force =     0.00000310    0.00001135    0.00180239
     atom   19 type  1   force =    -0.00007669    0.00006604   -0.00035253
     atom   20 type  1   force =     0.00007933    0.00002588   -0.00033407
     atom   21 type  1   force =     0.00008414    0.00020534   -0.00028982
     atom   22 type  1   force =    -0.00003232   -0.00043788    0.00021326
     atom   23 type  1   force =     0.00030683    0.00014151   -0.00007036
     atom   24 type  1   force =    -0.00017775    0.00012553   -0.00012088
     atom   25 type  1   force =    -0.00021880   -0.00005211   -0.00005378
     atom   26 type  1   force =     0.00003007    0.00019741   -0.00023580
     atom   27 type  1   force =     0.00028476   -0.00012513   -0.00007460
     atom   28 type  1   force =     0.00015953    0.00027236   -0.00023380
     atom   29 type  1   force =    -0.00012031    0.00023412   -0.00017366
     atom   30 type  1   force =     0.00005193   -0.00075029   -0.00028954
     atom   31 type  1   force =    -0.00001229    0.00012866   -0.00064433
     atom   32 type  1   force =     0.00008651    0.00039890    0.00038494
     atom   33 type  1   force =     0.00000654    0.00039195    0.00031504
     atom   34 type  1   force =     0.00013826   -0.00007561   -0.00006571
     atom   35 type  1   force =     0.00004790   -0.00090713   -0.00010273
     atom   36 type  1   force =    -0.00011374   -0.00012188   -0.00011565
     atom   37 type  2   force =    -0.00019025   -0.00086314   -0.00193321
     atom   38 type  2   force =     0.00064214   -0.00322142    0.00399441
     atom   39 type  2   force =     0.00388880   -0.00113181    0.00588233
     atom   40 type  3   force =    -0.00006862   -0.00015167   -0.00046252
     atom   41 type  3   force =    -0.00533451   -0.00018297   -0.00492808

     Total force =     0.011796     Total SCF correction =     0.003236
     SCF correction compared to forces is large: reduce conv_thr to get better values

[...]

     negative rho (up, down):  1.301E-02 0.000E+00

     negative rho (up, down):  1.301E-02 0.000E+00
 BEEFens 2000 ensemble energies
             -0.606286087662579E+02
             -0.361083581360251E+01
             -0.158240373300601E+02
              0.429043895452926E+02
             -0.220974653868505E+02
             -0.205161379469190E+02
             -0.351878809644708E+02
             -0.864208838009149E+02
             -0.464786233725914E+02
             -0.472443270199503E+02
             -0.369034247506323E+02
              0.226693324774404E+01
              0.406919040025338E+01
              0.762366697614064E+01
              0.265191188684355E+01
              0.474581561265749E+02
             -0.208662502288606E+02
             -0.230171969631424E+02
              0.192939356675448E+02
             -0.112295915447836E+03
              0.535890160004983E+02
             -0.289685202375911E+02
             -0.333733867576866E+01
             -0.113990382390241E+02
             -0.884389343485873E+01
             -0.463830971487172E+01
              0.882087785889568E+02
             -0.186877541490587E+02
             -0.899469443703686E+01
             -0.518050144890333E+02
              0.815075997759091E+02
             -0.187255432162312E+02
             -0.374719224996827E+02
              0.249100159163685E+02
             -0.283892730722880E+01
              0.163913562340149E+02
             -0.485639421683101E+01
              0.108059317294381E+02
              0.288080084157877E+02
             -0.103196996476522E+03
              0.557910427143079E+02
              0.142259652851654E+02
             -0.170682843420582E+01
             -0.361260380991870E+02
              0.123113552970108E+02
             -0.146525156244994E+02
              0.398078071068811E+02
              0.364585615628502E+02
             -0.307957004960226E+02
             -0.274925575302507E+02
             -0.328250530288954E+02
             -0.351830523273962E+02
              0.136166296507113E+02
             -0.490475916930725E+02
              0.115399424450972E+02
              0.622596045287525E+02
              0.634763966747188E+02
              0.355549057718330E+02
              0.153945912153438E+02
              0.270214067575347E+02
[...]
             -0.705584169882684E+02
             -0.901348638922173E+00
             -0.247060394908922E+01
             -0.881494676299383E+01
             -0.179748910490065E+01
             -0.652322761372736E+02
             -0.210604775887254E+02
              0.538154776090931E+01
              0.897927379946967E+01
              0.468430309928606E+02
             -0.397394756241290E+02
              0.656817003595078E+02
             -0.424908825540670E+02
              0.210123270009595E+02
              0.349960506101998E+02

 BEEF-vdW xc energy contributions
           1 :   -782.184128179261
           2 :    718.655483259913
           3 :   -608.604984739221
           4 :    478.937584434141
           5 :   -357.078348700577
           6 :    262.868358199533
           7 :   -204.019523162315
           8 :    176.054239302617
           9 :   -166.312818653202
          10 :    160.118834359176
          11 :   -146.591258987105
          12 :    121.899955497349
          13 :   -89.1166543438735
          14 :    55.2979182648179
          15 :   -27.4848657573002
          16 :    9.42894489770993
          17 :  -0.314392505898468
          18 :   -4.27269232590390
          19 :    9.84237647960651
          20 :   -20.2889164691414
          21 :    36.2156710466754
          22 :   -54.9501458627516
          23 :    72.0684058915443
          24 :   -83.6016758698352
          25 :    87.8422346788028
          26 :   -85.9557000672677
          27 :    81.2122847789340
          28 :   -77.3089546237742
          29 :    76.6233813911747
          30 :   -79.2146844646461
          31 :   -85.7810105449714
          32 :   -65.7649225644230

     Writing output data file ./pwscf.save/

     General routines

     Parallel routines

   This run was terminated on:  20:40:58  20May2022

   JOB DONE.