     Program PWSCF v.6.7MaX starts on  3Jan2023 at 22:24:16

     Reading input from ccch3-ensemble.in
Warning: card &CELL ignored
Warning: card / ignored

     Current dimensions of program PWSCF are:
     Max number of different atomic species (ntypx) = 10
     Max number of k-points (npk) =  40000
     Max angular momentum in pseudopotentials (lmaxx) =  3
     file Pt.pbe-n-kjpaw_psl.1.0.0.UPF: wavefunction(s)  6S 5D renormalized
     file C.pbe-n-kjpaw_psl.1.0.0.UPF: wavefunction(s)  2S 2P renormalized
     file H.pbe-kjpaw_psl.1.0.0.UPF: wavefunction(s)  1S renormalized

     IMPORTANT: XC functional enforced from input :
     Exchange-correlation= BEEF-VDW
                           (   1   4  43  14   2   0   0)
     Any further DFT definition will be discarded
     Please, verify this is what you really want

     Subspace diagonalization in iterative solution of the eigenvalue problem:
     a serial algorithm will be used

     bravais-lattice index     =            0
     lattice parameter (alat)  =      16.0349  a.u.
     unit-cell volume          =   11779.4823 (a.u.)^3
     number of atoms/cell      =           42
     number of atomic types    =            3
     number of electrons       =       375.00
     number of Kohn-Sham states=          226
     kinetic-energy cutoff     =      60.0000  Ry
     charge density cutoff     =     240.0000  Ry
     scf convergence threshold =      1.0E-06
     mixing beta               =       0.7000
     number of iterations used =            8  local-TF  mixing
     Exchange-correlation= BEEF-VDW
                           (   1   4  43  14   2   0   0)

     celldm(1)=  16.034858  celldm(2)=   0.000000  celldm(3)=   0.000000
     celldm(4)=   0.000000  celldm(5)=   0.000000  celldm(6)=   0.000000

     crystal axes: (cart. coord. in units of alat)
               a(1) = (   1.000000   0.000000   0.000000 )
               a(2) = (   0.500000   0.866025   0.000000 )
               a(3) = (   0.000000   0.000000   3.299136 )

     reciprocal axes: (cart. coord. in units 2 pi/alat)
               b(1) = (  1.000000 -0.577350  0.000000 )
               b(2) = (  0.000000  1.154701  0.000000 )
               b(3) = (  0.000000  0.000000  0.303110 )

     PseudoPot. # 1 for Pt read from file:
     /users/bkreitz1/quantum-espresso/potentials/Pt.pbe-n-kjpaw_psl.1.0.0.UPF
     MD5 check sum: 04dc8a03c51ece93fc7b5889c2958091
     Pseudo is Projector augmented-wave + core cor, Zval = 10.0
     Generated using 'atomic' code by A. Dal Corso  v.6.7MaX
     Shape of augmentation charge: PSQ
     Using radial grid of 1277 points,  6 beta functions with:
                l(1) =   0
                l(2) =   0
                l(3) =   1
                l(4) =   1
                l(5) =   2
                l(6) =   2
     Q(r) pseudized with 0 coefficients

     PseudoPot. # 2 for C  read from file:
     /users/bkreitz1/quantum-espresso/potentials/C.pbe-n-kjpaw_psl.1.0.0.UPF
     MD5 check sum: a169b0ebad56f5ec0d79c4633f80bf22
     Pseudo is Projector augmented-wave + core cor, Zval =  4.0
     Generated using 'atomic' code by A. Dal Corso  v.6.7MaX
     Shape of augmentation charge: PSQ
     Using radial grid of 1073 points,  4 beta functions with:
                l(1) =   0
                l(2) =   0
                l(3) =   1
                l(4) =   1
     Q(r) pseudized with 0 coefficients

     PseudoPot. # 3 for H  read from file:
     /users/bkreitz1/quantum-espresso/potentials/H.pbe-kjpaw_psl.1.0.0.UPF
     MD5 check sum: ae98473e6dc62675f0d0baffdab24f65
     Pseudo is Projector augmented-wave, Zval =  1.0
     Generated using 'atomic' code by A. Dal Corso  v.6.7MaX
     Shape of augmentation charge: PSQ
     Using radial grid of  929 points,  2 beta functions with:
                l(1) =   0
                l(2) =   0
     Q(r) pseudized with 0 coefficients

     atomic species   valence    mass     pseudopotential
        Pt            10.00   195.08400     Pt( 1.00)
        C              4.00    12.01100     C ( 1.00)
        H              1.00     1.00800     H ( 1.00)

     No symmetry found

   Cartesian axes

     site n.     atom                  positions (alat units)
         1           Pt  tau(   1) = (   0.0000000   0.0000000   1.0017346  )
         2           Pt  tau(   2) = (   0.3333333   0.0000000   1.0017346  )
         3           Pt  tau(   3) = (   0.6666667   0.0000000   1.0017346  )
         4           Pt  tau(   4) = (   0.1666667   0.2886751   1.0017346  )
         5           Pt  tau(   5) = (   0.5000000   0.2886751   1.0017346  )
         6           Pt  tau(   6) = (   0.8333333   0.2886751   1.0017346  )
         7           Pt  tau(   7) = (   0.3333333   0.5773503   1.0017346  )
         8           Pt  tau(   8) = (   0.6666667   0.5773503   1.0017346  )
         9           Pt  tau(   9) = (   1.0000000   0.5773503   1.0017346  )
        10           Pt  tau(  10) = (   0.1666667   0.0962250   1.2739001  )
        11           Pt  tau(  11) = (   0.5000000   0.0962250   1.2739001  )
        12           Pt  tau(  12) = (   0.8333333   0.0962250   1.2739001  )
        13           Pt  tau(  13) = (   0.3333333   0.3849002   1.2739001  )
        14           Pt  tau(  14) = (   0.6666667   0.3849002   1.2739001  )
        15           Pt  tau(  15) = (   1.0000000   0.3849002   1.2739001  )
        16           Pt  tau(  16) = (   0.5000000   0.6735753   1.2739001  )
        17           Pt  tau(  17) = (   0.8333333   0.6735753   1.2739001  )
        18           Pt  tau(  18) = (   1.1666667   0.6735753   1.2739001  )
        19           Pt  tau(  19) = (  -0.0021039   0.1954171   1.5448897  )
        20           Pt  tau(  20) = (   0.3354377   0.1954234   1.5448804  )
        21           Pt  tau(  21) = (   0.6666471   0.1946610   1.5451030  )
        22           Pt  tau(  22) = (   0.1666691   0.4824463   1.5411143  )
        23           Pt  tau(  23) = (   0.5009589   0.4820767   1.5463166  )
        24           Pt  tau(  24) = (   0.8323499   0.4820867   1.5463346  )
        25           Pt  tau(  25) = (   0.3336627   0.7711831   1.5420204  )
        26           Pt  tau(  26) = (   0.6666605   0.7679518   1.5480863  )
        27           Pt  tau(  27) = (   0.9996547   0.7711933   1.5420236  )
        28           Pt  tau(  28) = (  -0.0009995   0.0054562   1.8180614  )
        29           Pt  tau(  29) = (   0.3343177   0.0054626   1.8180406  )
        30           Pt  tau(  30) = (   0.6666435  -0.0029737   1.8161382  )
        31           Pt  tau(  31) = (   0.1666654   0.2914813   1.8170280  )
        32           Pt  tau(  32) = (   0.4910412   0.2826985   1.8281812  )
        33           Pt  tau(  33) = (   0.8422770   0.2826932   1.8281836  )
        34           Pt  tau(  34) = (   0.3302939   0.5802444   1.8149176  )
        35           Pt  tau(  35) = (   0.6666583   0.5996136   1.8312653  )
        36           Pt  tau(  36) = (   1.0030171   0.5802523   1.8149172  )
        37           C   tau(  37) = (   0.6666579   0.3712018   1.9604154  )
        38           C   tau(  38) = (   0.6666992   0.5016668   2.0487849  )
        39           C   tau(  39) = (   0.6667651   0.5657214   2.2092310  )
        40           H   tau(  40) = (   0.6667692   0.4717353   2.2971221  )
        41           H   tau(  41) = (   0.7702842   0.6406938   2.2259544  )
        42           H   tau(  42) = (   0.5632932   0.6407462   2.2271994  )

     number of k points=    13  Marzari-Vanderbilt smearing, width (Ry)=  0.0200
                       cart. coord. in units 2pi/alat
        k(    1) = (   0.0000000   0.0000000   0.0000000), wk =   0.0800000
        k(    2) = (   0.0000000   0.2309401   0.0000000), wk =   0.1600000
        k(    3) = (   0.0000000   0.4618802   0.0000000), wk =   0.1600000
        k(    4) = (   0.2000000  -0.1154701   0.0000000), wk =   0.1600000
        k(    5) = (   0.2000000   0.1154701   0.0000000), wk =   0.1600000
        k(    6) = (   0.2000000   0.3464102   0.0000000), wk =   0.1600000
        k(    7) = (   0.2000000  -0.5773503   0.0000000), wk =   0.1600000
        k(    8) = (   0.2000000  -0.3464102   0.0000000), wk =   0.1600000
        k(    9) = (   0.4000000  -0.2309401   0.0000000), wk =   0.1600000
        k(   10) = (   0.4000000  -0.0000000   0.0000000), wk =   0.1600000
        k(   11) = (   0.4000000   0.2309401   0.0000000), wk =   0.1600000
        k(   12) = (   0.4000000  -0.6928203   0.0000000), wk =   0.1600000
        k(   13) = (   0.4000000  -0.4618802   0.0000000), wk =   0.1600000

     Check: negative core charge=   -0.000002

     Initial potential from superposition of free atoms

     starting charge  374.99374, renormalised to  375.00000

     negative rho (up, down):  1.191E-02 0.000E+00

     %%%%%%%%%%%%%%%%%%%%%%%%%%%%%%%%%%%%%%%%%%%%%%%%%%%%%%%%%%%%%%%%%%%%%%%%
     %                                                                      %
     % You are using vdW-DF, which was implemented by the Thonhauser group. %
     % Please cite the following two papers that made this development      %
     % possible and the two reviews that describe the various versions:     %
     %                                                                      %
     %   T. Thonhauser et al., PRL 115, 136402 (2015).                      %
     %   T. Thonhauser et al., PRB 76, 125112 (2007).                       %
     %   K. Berland et al., Rep. Prog. Phys. 78, 066501 (2015).             %
     %   D.C. Langreth et al., J. Phys.: Condens. Matter 21, 084203 (2009). %
     %                                                                      %
     %                                                                      %
     % If you are calculating the stress with vdW-DF, please also cite:     %
     %                                                                      %
     %   R. Sabatini et al., J. Phys.: Condens. Matter 24, 424209 (2012).   %
     %                                                                      %
     %%%%%%%%%%%%%%%%%%%%%%%%%%%%%%%%%%%%%%%%%%%%%%%%%%%%%%%%%%%%%%%%%%%%%%%%

     Starting wfcs are  339 randomized atomic wfcs
     Checking if some PAW data can be deallocated...

     Self-consistent Calculation

     iteration #  1     ecut=    60.00 Ry     beta= 0.70
     Davidson diagonalization with overlap
     ethr =  1.00E-02,  avg # of iterations =  2.2

     Threshold (ethr) on eigenvalues was too large:
     Diagonalizing with lowered threshold

     Davidson diagonalization with overlap
     ethr =  9.68E-04,  avg # of iterations =  2.3

[...]

     total energy              =  -27814.43623253 Ry
     estimated scf accuracy    <       3.88555932 Ry

[...]

     iteration #  7     ecut=    60.00 Ry     beta= 0.70
     Davidson diagonalization with overlap
     c_bands:  3 eigenvalues not converged
     c_bands:  3 eigenvalues not converged
     c_bands:  2 eigenvalues not converged
     c_bands:  1 eigenvalues not converged
     ethr =  2.47E-06,  avg # of iterations = 16.1

[...]

     iteration # 17     ecut=    60.00 Ry     beta= 0.70
     Davidson diagonalization with overlap
     ethr =  1.06E-09,  avg # of iterations =  6.7

[...]

     total energy              =  -27814.86752042 Ry
     estimated scf accuracy    <       0.00000343 Ry

     iteration # 18     ecut=    60.00 Ry     beta= 0.70
     Davidson diagonalization with overlap
     c_bands:  1 eigenvalues not converged
     ethr =  9.15E-10,  avg # of iterations =  2.7

[...]

     End of self-consistent calculation

          k = 0.0000 0.0000 0.0000 ( 92567 PWs)   bands (ev):

   -14.3241 -11.9833  -7.2445  -6.8429  -5.6675  -5.2249  -5.1122  -4.9787
    -4.5376  -4.5240  -4.5008  -4.4949  -4.4632  -4.4465  -4.4339  -4.3629
    -4.1156  -3.9646  -3.9627  -3.9548  -3.9294  -3.8613  -3.7941  -3.6562
    -3.5262  -3.5070  -3.4683  -3.3703  -3.3327  -3.3127  -3.2828  -3.2823
    -3.2573  -3.2269  -3.1662  -3.1436  -3.1276  -3.0881  -3.0416  -3.0267
    -3.0237  -2.9989  -2.9745  -2.9692  -2.9515  -2.8740  -2.7104  -2.6018
    -2.5269  -2.4611  -2.4318  -2.4297  -2.3959  -2.3855  -2.3515  -2.3382
    -2.3149  -2.2088  -2.1610  -2.1375  -2.0854  -1.9530  -1.8988  -1.7382
    -1.7008  -1.6311  -1.6296  -1.5859  -1.5489  -1.5041  -1.4802  -1.4717
    -1.4126  -1.4123  -1.3969  -1.3932  -1.3767  -1.3726  -1.3522  -1.3231
    -1.3180  -1.3075  -1.3000  -1.2848  -1.2569  -1.2359  -1.2218  -1.2004
    -1.1985  -1.1770  -1.0438  -1.0356  -1.0124  -0.9939  -0.9763  -0.9643
    -0.9410  -0.9409  -0.9202  -0.8713  -0.8664  -0.8639  -0.7850  -0.7814
    -0.7347  -0.7321  -0.7120  -0.7054  -0.6727  -0.6365  -0.6172  -0.5787
    -0.5656  -0.5589  -0.4395  -0.2722  -0.2423  -0.1622  -0.1466  -0.1336
    -0.0663  -0.0601  -0.0532  -0.0163   0.0366   0.0885   0.0888   0.1196
     0.1479   0.1561   0.1685   0.1832   0.1886   0.2788   0.3401   0.3683
     0.4186   0.4302   0.4424   0.4597   0.5290   0.5646   0.6472   0.6826
     0.6906   0.7261   0.7322   0.7389   0.7560   0.7985   0.8270   0.8515
     0.9160   0.9395   0.9429   0.9799   1.0412   1.0467   1.1149   1.1189
     1.1229   1.1309   1.1353   1.1380   1.1507   1.1613   1.1634   1.2077
     1.2306   1.2484   1.2514   1.2598   1.3244   1.3264   1.3478   1.3543
     1.3608   1.4025   1.4085   1.4401   1.4403   1.4908   1.4933   1.4976
     1.5178   1.5296   1.5332   1.5815   1.5816   1.5967   1.6117   1.6394
     1.6550   1.7267   1.7353   1.8404   1.8854   1.8968   1.9380   1.9483
     1.9583   1.9609   2.0401   2.4014   2.6835   2.7653   2.8085   2.8268
     3.0334   3.3128   4.5537   4.6216   5.0521   5.1133   5.1343   5.2373
     5.5662   5.6664   5.9859   6.3882   6.6326   6.7322   6.7515   6.7806
     6.8104   6.8354

[...]

          k = 0.4000-0.4619 0.0000 ( 92454 PWs)   bands (ev):

   -14.3234 -11.9820  -7.1647  -5.9760  -5.9284  -5.4027  -5.1955  -5.1103
    -4.9800  -4.6645  -4.5894  -4.2092  -4.1585  -4.0612  -4.0214  -3.9158
    -3.8880  -3.8526  -3.8032  -3.7729  -3.7023  -3.6650  -3.6503  -3.6278
    -3.6090  -3.5848  -3.5504  -3.5307  -3.4507  -3.4356  -3.4269  -3.4052
    -3.3405  -3.2877  -3.1868  -3.1692  -3.1581  -3.1004  -3.0455  -3.0207
    -2.9905  -2.9427  -2.8896  -2.8456  -2.8149  -2.7008  -2.6234  -2.6041
    -2.5903  -2.5253  -2.4899  -2.4428  -2.3957  -2.3349  -2.3075  -2.2737
    -2.2278  -2.1875  -2.1532  -2.1309  -2.1079  -2.0928  -2.0644  -2.0388
    -2.0144  -1.9757  -1.9565  -1.9151  -1.8978  -1.8764  -1.8403  -1.7753
    -1.7155  -1.7034  -1.6712  -1.6142  -1.5673  -1.5566  -1.5242  -1.5099
    -1.4823  -1.4701  -1.4149  -1.3843  -1.3473  -1.3146  -1.2922  -1.2862
    -1.2244  -1.1765  -1.1602  -1.1438  -1.1282  -1.0750  -1.0466  -1.0010
    -0.9731  -0.9451  -0.9174  -0.8894  -0.8701  -0.8509  -0.8294  -0.8198
    -0.8027  -0.7847  -0.7710  -0.7236  -0.7054  -0.6957  -0.6732  -0.6670
    -0.6548  -0.6235  -0.6059  -0.5508  -0.4945  -0.4375  -0.3952  -0.3288
    -0.3104  -0.2387  -0.2126  -0.1682  -0.1291  -0.1164  -0.1054  -0.0735
    -0.0613  -0.0314  -0.0105   0.0272   0.0691   0.1113   0.1750   0.1901
     0.2140   0.2162   0.2889   0.3334   0.3888   0.4043   0.4733   0.4978
     0.5379   0.5569   0.5990   0.6108   0.6242   0.6381   0.7078   0.7200
     0.7458   0.7776   0.8221   0.8399   0.8449   0.9016   0.9242   0.9884
     1.0229   1.1059   1.1551   1.1829   1.2717   1.2940   1.3221   1.3655
     1.3840   1.4393   1.4668   1.5059   1.5727   1.5874   1.6290   1.6526
     1.6737   1.7082   1.7162   1.7430   1.7776   1.8043   1.8193   1.8445
     1.8705   1.8809   1.9137   1.9656   1.9995   2.0414   2.0834   2.1064
     2.1248   2.1572   2.1790   2.2752   2.3515   2.5073   2.9895   3.2384
     3.2719   3.3745   3.4392   3.5258   3.6630   3.7176   3.9457   4.1391
     4.2841   4.3746   4.5334   4.6252   4.7702   4.8603   4.9369   5.0128
     5.0955   5.1627   5.3298   5.5174   5.6140   5.7976   5.9719   6.1895
     6.2827   6.3479

     the Fermi energy is     1.8877 ev

!    total energy              =  -27814.86752047 Ry

     total all-electron energy =  -1326874.925220 Ry
     estimated scf accuracy    <       0.00000060 Ry
     smearing contrib. (-TS)   =       0.00092594 Ry
     internal energy E=F+TS    =  -27814.86844642 Ry

     The total energy is F=E-TS. E is the sum of the following terms:
     one-electron contribution =  -29260.14941882 Ry
     hartree contribution      =   14933.25427664 Ry
     xc contribution           =    -906.73968888 Ry
     ewald contribution        =   12912.43464893 Ry
     one-center paw contrib.   =  -25493.66826429 Ry

     convergence has been achieved in  18 iterations

[...]

     Forces acting on atoms (cartesian axes, Ry/au):

     atom    1 type  1   force =    -0.00106423   -0.00080856   -0.00447460
     atom    2 type  1   force =     0.00110839   -0.00076979   -0.00446849
     atom    3 type  1   force =     0.00003143   -0.00046336   -0.00416264
     atom    4 type  1   force =     0.00004748    0.00190921   -0.00653969
     atom    5 type  1   force =    -0.00096801   -0.00057211   -0.00334885
     atom    6 type  1   force =     0.00098567   -0.00060520   -0.00338947
     atom    7 type  1   force =    -0.00068061   -0.00037201   -0.00464861
     atom    8 type  1   force =    -0.00000684    0.00036003   -0.00308214
     atom    9 type  1   force =     0.00076295   -0.00035938   -0.00469669
     atom   10 type  1   force =     0.00005735   -0.00046006    0.00481683
     atom   11 type  1   force =    -0.00234515    0.00131069    0.00292938
     atom   12 type  1   force =     0.00234834    0.00126205    0.00292701
     atom   13 type  1   force =     0.00023121   -0.00195012    0.00170855
     atom   14 type  1   force =    -0.00004136    0.00162977    0.00938045
     atom   15 type  1   force =    -0.00013704   -0.00193597    0.00172827
     atom   16 type  1   force =     0.00315516    0.00155789    0.00602926
     atom   17 type  1   force =    -0.00313669    0.00160489    0.00604368
     atom   18 type  1   force =     0.00004519    0.00107455    0.00025195
     atom   19 type  1   force =     0.00021993   -0.00026477   -0.00004953
     atom   20 type  1   force =    -0.00017361   -0.00026296   -0.00005710
     atom   21 type  1   force =     0.00004149   -0.00033566   -0.00011310
     atom   22 type  1   force =     0.00001619   -0.00058478    0.00002748
     atom   23 type  1   force =     0.00032267   -0.00017218   -0.00015105
     atom   24 type  1   force =    -0.00026575   -0.00019580   -0.00016807
     atom   25 type  1   force =     0.00021697    0.00003950   -0.00021350
     atom   26 type  1   force =     0.00002347    0.00063704   -0.00006309
     atom   27 type  1   force =    -0.00016975    0.00003795   -0.00022759
     atom   28 type  1   force =     0.00012594   -0.00029565    0.00033296
     atom   29 type  1   force =    -0.00008129   -0.00031221    0.00034283
     atom   30 type  1   force =     0.00004430    0.00034189    0.00054144
     atom   31 type  1   force =     0.00001917   -0.00046807    0.00035099
     atom   32 type  1   force =     0.00096662    0.00039925    0.00019425
     atom   33 type  1   force =    -0.00097575    0.00042732    0.00021208
     atom   34 type  1   force =     0.00016268   -0.00029743    0.00023324
     atom   35 type  1   force =     0.00005342    0.00040065   -0.00034372
     atom   36 type  1   force =    -0.00011665   -0.00030238    0.00023169
     atom   37 type  2   force =     0.00023615    0.00078958    0.00046506
     atom   38 type  2   force =    -0.00092665   -0.00187253   -0.00073477
     atom   39 type  2   force =    -0.00196391    0.00099356    0.00384805
     atom   40 type  3   force =     0.00067590   -0.00072338   -0.00045981
     atom   41 type  3   force =    -0.00008121    0.00014487    0.00036254
     atom   42 type  3   force =     0.00123645   -0.00053634   -0.00156547

     Total force =     0.006063     Total SCF correction =     0.002536
     SCF correction compared to forces is large: reduce conv_thr to get better values

[...]

     negative rho (up, down):  1.349E-02 0.000E+00

     negative rho (up, down):  1.349E-02 0.000E+00
 BEEFens 2000 ensemble energies
             -0.606922560516567E+02
             -0.361109224745630E+01
             -0.158432105330812E+02
              0.429328503597404E+02
             -0.221103313048690E+02
             -0.205361919300155E+02
             -0.352304466794046E+02
             -0.865167744811572E+02
             -0.465331637677247E+02
             -0.472821456877857E+02
             -0.369249482600323E+02
              0.226000833211820E+01
              0.408148264770605E+01
              0.762145309494002E+01
              0.265830813342845E+01
              0.475017403831198E+02
             -0.208924009501153E+02
             -0.230495424429774E+02
              0.193118241517088E+02
             -0.112404596414297E+03
              0.536359589373449E+02
             -0.289798544491750E+02
             -0.334109125555922E+01
             -0.114030144682666E+02
             -0.885117899977831E+01
             -0.466837581757196E+01
              0.883016817875810E+02
             -0.186771692017497E+02
             -0.902190574491783E+01
             -0.518633276488694E+02
              0.815943081082501E+02
             -0.187494616819315E+02
             -0.375138651775934E+02
              0.249409135268787E+02
             -0.283296932794610E+01
              0.164051344433267E+02
             -0.485862931688126E+01
              0.108087974171738E+02
              0.288227884117148E+02
             -0.103313748251193E+03
              0.558391134114942E+02
              0.142386409178343E+02
             -0.170156634261463E+01
             -0.361701098552952E+02
              0.123205712748328E+02
             -0.146408997555047E+02
              0.398518694335361E+02
              0.364936913316794E+02
             -0.308208707330081E+02
             -0.275277965691049E+02
             -0.328421722549548E+02
             -0.352168523187571E+02
              0.136214874282973E+02
             -0.491107998610519E+02
              0.115503273557940E+02
              0.623219839060850E+02
              0.635329339500071E+02
              0.355774714092567E+02
              0.154294048033060E+02
              0.270450659141306E+02
[...]
             -0.706206778280596E+02
             -0.920179310686649E+00
             -0.246112403652567E+01
             -0.882691303576769E+01
             -0.178287517544942E+01
             -0.652955834827196E+02
             -0.210867540419482E+02
              0.539335169286072E+01
              0.897424963437999E+01
              0.468817344342215E+02
             -0.397733187592118E+02
              0.657551417586824E+02
             -0.425269015976050E+02
              0.210285180737822E+02
              0.350388600261970E+02

 BEEF-vdW xc energy contributions
           1 :   -782.966106935834
           2 :    719.418072423772
           3 :   -609.306591795775
           4 :    479.516012739777
           5 :   -357.462846801420
           6 :    263.013860710926
           7 :   -203.936387211880
           8 :    175.808903649418
           9 :   -166.003300087387
          10 :    159.839760538459
          11 :   -146.398393737451
          12 :    121.791819913237
          13 :   -89.0448491036512
          14 :    55.1973774521967
          15 :   -27.3064703326244
          16 :    9.15887780895673
          17 :   2.534051488646583E-002
          18 :   -4.63837248755476
          19 :    10.1901934886389
          20 :   -20.5923444999246
          21 :    36.4697604179802
          22 :   -55.1653672938601
          23 :    72.2620651690180
          24 :   -83.7895304452754
          25 :    88.0337560625351
          26 :   -86.1531705599805
          27 :    81.4128531392752
          28 :   -77.5022200538997
          29 :    76.7840287260873
          30 :   -79.3013846773383
          31 :   -85.8946488929287
          32 :   -65.8665904581878

     Writing output data file ./pwscf.save/

     General routines

     Parallel routines

   This run was terminated on:   2:46:29   4Jan2023

   JOB DONE.