     Program PWSCF v.6.7MaX starts on 20May2022 at 16:44:13

     Reading input from cch2ch3-ensemble.in
Warning: card &CELL ignored
Warning: card / ignored

     Current dimensions of program PWSCF are:
     Max number of different atomic species (ntypx) = 10
     Max number of k-points (npk) =  40000
     Max angular momentum in pseudopotentials (lmaxx) =  3
     file Pt.pbe-n-kjpaw_psl.1.0.0.UPF: wavefunction(s)  6S 5D renormalized
     file C.pbe-n-kjpaw_psl.1.0.0.UPF: wavefunction(s)  2S 2P renormalized
     file H.pbe-kjpaw_psl.1.0.0.UPF: wavefunction(s)  1S renormalized

     IMPORTANT: XC functional enforced from input :
     Exchange-correlation= BEEF-VDW
                           (   1   4  43  14   2   0   0)
     Any further DFT definition will be discarded
     Please, verify this is what you really want

     Subspace diagonalization in iterative solution of the eigenvalue problem:
     a serial algorithm will be used

     bravais-lattice index     =            0
     lattice parameter (alat)  =      16.0349  a.u.
     unit-cell volume          =   11982.2708 (a.u.)^3
     number of atoms/cell      =           44
     number of atomic types    =            3
     number of electrons       =       377.00
     number of Kohn-Sham states=          227
     kinetic-energy cutoff     =      60.0000  Ry
     charge density cutoff     =     240.0000  Ry
     scf convergence threshold =      1.0E-06
     mixing beta               =       0.7000
     number of iterations used =            8  local-TF  mixing
     Exchange-correlation= BEEF-VDW
                           (   1   4  43  14   2   0   0)

     celldm(1)=  16.034858  celldm(2)=   0.000000  celldm(3)=   0.000000
     celldm(4)=   0.000000  celldm(5)=   0.000000  celldm(6)=   0.000000

     crystal axes: (cart. coord. in units of alat)
               a(1) = (   1.000000   0.000000   0.000000 )
               a(2) = (   0.500000   0.866025   0.000000 )
               a(3) = (   0.000000   0.000000   3.355932 )

     reciprocal axes: (cart. coord. in units 2 pi/alat)
               b(1) = (  1.000000 -0.577350  0.000000 )
               b(2) = (  0.000000  1.154701  0.000000 )
               b(3) = (  0.000000  0.000000  0.297980 )

     PseudoPot. # 1 for Pt read from file:
     /users/bkreitz1/quantum-espresso/potentials/Pt.pbe-n-kjpaw_psl.1.0.0.UPF
     MD5 check sum: 04dc8a03c51ece93fc7b5889c2958091
     Pseudo is Projector augmented-wave + core cor, Zval = 10.0
     Generated using 'atomic' code by A. Dal Corso  v.6.7MaX
     Shape of augmentation charge: PSQ
     Using radial grid of 1277 points,  6 beta functions with:
                l(1) =   0
                l(2) =   0
                l(3) =   1
                l(4) =   1
                l(5) =   2
                l(6) =   2
     Q(r) pseudized with 0 coefficients

     PseudoPot. # 2 for C  read from file:
     /users/bkreitz1/quantum-espresso/potentials/C.pbe-n-kjpaw_psl.1.0.0.UPF
     MD5 check sum: a169b0ebad56f5ec0d79c4633f80bf22
     Pseudo is Projector augmented-wave + core cor, Zval =  4.0
     Generated using 'atomic' code by A. Dal Corso  v.6.7MaX
     Shape of augmentation charge: PSQ
     Using radial grid of 1073 points,  4 beta functions with:
                l(1) =   0
                l(2) =   0
                l(3) =   1
                l(4) =   1
     Q(r) pseudized with 0 coefficients

     PseudoPot. # 3 for H  read from file:
     /users/bkreitz1/quantum-espresso/potentials/H.pbe-kjpaw_psl.1.0.0.UPF
     MD5 check sum: ae98473e6dc62675f0d0baffdab24f65
     Pseudo is Projector augmented-wave, Zval =  1.0
     Generated using 'atomic' code by A. Dal Corso  v.6.7MaX
     Shape of augmentation charge: PSQ
     Using radial grid of  929 points,  2 beta functions with:
                l(1) =   0
                l(2) =   0
     Q(r) pseudized with 0 coefficients

     atomic species   valence    mass     pseudopotential
        Pt            10.00   195.08400     Pt( 1.00)
        C              4.00    12.01100     C ( 1.00)
        H              1.00     1.00800     H ( 1.00)

     No symmetry found

   Cartesian axes

     site n.     atom                  positions (alat units)
         1           Pt  tau(   1) = (   0.0000000   0.0000000   1.0017346  )
         2           Pt  tau(   2) = (   0.3333333   0.0000000   1.0017346  )
         3           Pt  tau(   3) = (   0.6666667   0.0000000   1.0017346  )
         4           Pt  tau(   4) = (   0.1666667   0.2886751   1.0017346  )
         5           Pt  tau(   5) = (   0.5000000   0.2886751   1.0017346  )
         6           Pt  tau(   6) = (   0.8333333   0.2886751   1.0017346  )
         7           Pt  tau(   7) = (   0.3333333   0.5773503   1.0017346  )
         8           Pt  tau(   8) = (   0.6666667   0.5773503   1.0017346  )
         9           Pt  tau(   9) = (   1.0000000   0.5773503   1.0017346  )
        10           Pt  tau(  10) = (   0.1666667   0.0962250   1.2739001  )
        11           Pt  tau(  11) = (   0.5000000   0.0962250   1.2739001  )
        12           Pt  tau(  12) = (   0.8333333   0.0962250   1.2739001  )
        13           Pt  tau(  13) = (   0.3333333   0.3849002   1.2739001  )
        14           Pt  tau(  14) = (   0.6666667   0.3849002   1.2739001  )
        15           Pt  tau(  15) = (   1.0000000   0.3849002   1.2739001  )
        16           Pt  tau(  16) = (   0.5000000   0.6735753   1.2739001  )
        17           Pt  tau(  17) = (   0.8333333   0.6735753   1.2739001  )
        18           Pt  tau(  18) = (   1.1666667   0.6735753   1.2739001  )
        19           Pt  tau(  19) = (  -0.0009725   0.1931691   1.5451779  )
        20           Pt  tau(  20) = (   0.3353535   0.1932635   1.5450942  )
        21           Pt  tau(  21) = (   0.6668637   0.1931847   1.5456046  )
        22           Pt  tau(  22) = (   0.1673202   0.4808278   1.5420650  )
        23           Pt  tau(  23) = (   0.5014040   0.4808091   1.5460578  )
        24           Pt  tau(  24) = (   0.8332729   0.4807018   1.5455917  )
        25           Pt  tau(  25) = (   0.3340779   0.7699298   1.5422560  )
        26           Pt  tau(  26) = (   0.6672431   0.7676047   1.5454838  )
        27           Pt  tau(  27) = (   1.0002827   0.7699290   1.5421190  )
        28           Pt  tau(  28) = (   0.0016866  -0.0010352   1.8170009  )
        29           Pt  tau(  29) = (   0.3347261  -0.0002316   1.8171973  )
        30           Pt  tau(  30) = (   0.6677959  -0.0038504   1.8165649  )
        31           Pt  tau(  31) = (   0.1681351   0.2882540   1.8168428  )
        32           Pt  tau(  32) = (   0.4984472   0.2873672   1.8331953  )
        33           Pt  tau(  33) = (   0.8376071   0.2855703   1.8316723  )
        34           Pt  tau(  34) = (   0.3318158   0.5787190   1.8165928  )
        35           Pt  tau(  35) = (   0.6691692   0.5796329   1.8347180  )
        36           Pt  tau(  36) = (   1.0044580   0.5787124   1.8160894  )
        37           C   tau(  37) = (   0.6700243   0.3824314   1.9682121  )
        38           C   tau(  38) = (   0.6655967   0.3789872   2.1452432  )
        39           C   tau(  39) = (   0.8271204   0.3966195   2.2257080  )
        40           H   tau(  40) = (   0.5855821   0.4727012   2.1842732  )
        41           H   tau(  41) = (   0.6116916   0.2668768   2.1804595  )
        42           H   tau(  42) = (   0.8108386   0.3978810   2.3533782  )
        43           H   tau(  43) = (   0.9048780   0.2988400   2.1951233  )
        44           H   tau(  44) = (   0.8845172   0.5063897   2.1919819  )

     number of k points=    13  Marzari-Vanderbilt smearing, width (Ry)=  0.0200
                       cart. coord. in units 2pi/alat
        k(    1) = (   0.0000000   0.0000000   0.0000000), wk =   0.0800000
        k(    2) = (   0.0000000   0.2309401   0.0000000), wk =   0.1600000
        k(    3) = (   0.0000000   0.4618802   0.0000000), wk =   0.1600000
        k(    4) = (   0.2000000  -0.1154701   0.0000000), wk =   0.1600000
        k(    5) = (   0.2000000   0.1154701   0.0000000), wk =   0.1600000
        k(    6) = (   0.2000000   0.3464102   0.0000000), wk =   0.1600000
        k(    7) = (   0.2000000  -0.5773503   0.0000000), wk =   0.1600000
        k(    8) = (   0.2000000  -0.3464102   0.0000000), wk =   0.1600000
        k(    9) = (   0.4000000  -0.2309401   0.0000000), wk =   0.1600000
        k(   10) = (   0.4000000  -0.0000000   0.0000000), wk =   0.1600000
        k(   11) = (   0.4000000   0.2309401   0.0000000), wk =   0.1600000
        k(   12) = (   0.4000000  -0.6928203   0.0000000), wk =   0.1600000
        k(   13) = (   0.4000000  -0.4618802   0.0000000), wk =   0.1600000

     Check: negative core charge=   -0.000002

     Initial potential from superposition of free atoms

     starting charge  376.99372, renormalised to  377.00000

     negative rho (up, down):  1.125E-02 0.000E+00

     %%%%%%%%%%%%%%%%%%%%%%%%%%%%%%%%%%%%%%%%%%%%%%%%%%%%%%%%%%%%%%%%%%%%%%%%
     %                                                                      %
     % You are using vdW-DF, which was implemented by the Thonhauser group. %
     % Please cite the following two papers that made this development      %
     % possible and the two reviews that describe the various versions:     %
     %                                                                      %
     %   T. Thonhauser et al., PRL 115, 136402 (2015).                      %
     %   T. Thonhauser et al., PRB 76, 125112 (2007).                       %
     %   K. Berland et al., Rep. Prog. Phys. 78, 066501 (2015).             %
     %   D.C. Langreth et al., J. Phys.: Condens. Matter 21, 084203 (2009). %
     %                                                                      %
     %                                                                      %
     % If you are calculating the stress with vdW-DF, please also cite:     %
     %                                                                      %
     %   R. Sabatini et al., J. Phys.: Condens. Matter 24, 424209 (2012).   %
     %                                                                      %
     %%%%%%%%%%%%%%%%%%%%%%%%%%%%%%%%%%%%%%%%%%%%%%%%%%%%%%%%%%%%%%%%%%%%%%%%

     Starting wfcs are  341 randomized atomic wfcs
     Checking if some PAW data can be deallocated...

     Self-consistent Calculation

     iteration #  1     ecut=    60.00 Ry     beta= 0.70
     Davidson diagonalization with overlap
     ethr =  1.00E-02,  avg # of iterations =  2.5

     Threshold (ethr) on eigenvalues was too large:
     Diagonalizing with lowered threshold

     Davidson diagonalization with overlap
     ethr =  7.58E-04,  avg # of iterations =  3.2

[...]

     total energy              =  -27817.18582185 Ry
     estimated scf accuracy    <       3.13836622 Ry

[...]

     iteration #  5     ecut=    60.00 Ry     beta= 0.70
     Davidson diagonalization with overlap
     c_bands:  2 eigenvalues not converged
     ethr =  7.33E-05,  avg # of iterations =  8.0

[...]

     iteration # 12     ecut=    60.00 Ry     beta= 0.70
     Davidson diagonalization with overlap
     c_bands:  1 eigenvalues not converged
     ethr =  2.61E-07,  avg # of iterations =  4.8

[...]

     total energy              =  -27817.43151704 Ry
     estimated scf accuracy    <       0.00000132 Ry

     iteration # 22     ecut=    60.00 Ry     beta= 0.70
     Davidson diagonalization with overlap
     ethr =  3.50E-10,  avg # of iterations =  2.0

[...]

     End of self-consistent calculation

          k = 0.0000 0.0000 0.0000 ( 94237 PWs)   bands (ev):

   -13.5441 -10.6687  -8.4747  -7.0821  -5.8063  -5.2696  -5.2291  -4.7876
    -4.7378  -4.7177  -4.7067  -4.6893  -4.6664  -4.6641  -4.5477  -4.4056
    -4.2103  -4.1583  -4.1446  -4.1405  -4.0940  -4.0371  -3.8989  -3.7049
    -3.7009  -3.6972  -3.6171  -3.5581  -3.5114  -3.4818  -3.4777  -3.4743
    -3.4006  -3.3716  -3.3455  -3.2895  -3.2726  -3.2701  -3.2576  -3.2185
    -3.1976  -3.1965  -3.1862  -3.1603  -3.1530  -3.0005  -2.7952  -2.6903
    -2.6403  -2.6257  -2.6117  -2.6076  -2.5867  -2.5587  -2.5459  -2.5419
    -2.5262  -2.3832  -2.3800  -2.3088  -2.2792  -2.2532  -2.1149  -1.9667
    -1.8905  -1.8793  -1.8281  -1.8100  -1.8050  -1.7623  -1.7250  -1.6503
    -1.6449  -1.6260  -1.6146  -1.6125  -1.6107  -1.5989  -1.5736  -1.5627
    -1.5622  -1.5152  -1.5128  -1.5093  -1.5034  -1.5011  -1.4314  -1.4166
    -1.4116  -1.3967  -1.3956  -1.3837  -1.2205  -1.2003  -1.1993  -1.1704
    -1.1671  -1.1644  -1.1512  -1.1477  -1.0863  -1.0861  -1.0689  -0.9822
    -0.9819  -0.9429  -0.9385  -0.9175  -0.8322  -0.8295  -0.8032  -0.7992
    -0.7934  -0.7826  -0.6775  -0.6559  -0.6378  -0.3437  -0.3418  -0.3206
    -0.2778  -0.2755  -0.2656  -0.2565  -0.2505  -0.2486  -0.1302  -0.1282
    -0.0730  -0.0712  -0.0689  -0.0315  -0.0304  -0.0005   0.0353   0.0766
     0.1780   0.1817   0.2089   0.2212   0.2663   0.2712   0.4201   0.4571
     0.4592   0.4749   0.5116   0.5161   0.5598   0.5668   0.6318   0.6355
     0.6589   0.7034   0.7253   0.7291   0.7655   0.8266   0.8307   0.8444
     0.8903   0.8923   0.9088   0.9102   0.9131   0.9215   0.9415   0.9422
     0.9447   1.0143   1.0177   1.0311   1.0324   1.0367   1.1074   1.1106
     1.1255   1.1273   1.1298   1.1685   1.1692   1.2168   1.2667   1.2707
     1.2722   1.2755   1.2770   1.3281   1.3506   1.3513   1.3859   1.3926
     1.3935   1.4171   1.4310   1.5654   1.5698   1.6756   1.6815   1.6842
     1.7188   1.7194   1.7387   2.2640   2.2797   2.2908   2.5060   2.5817
     2.5846   2.6132   3.7258   3.7429   4.5663   4.8811   4.8838   4.8981
     5.3364   5.3611   5.6630   6.3521   6.4372   6.5037   6.5041   6.5464
     6.6555   6.6623   6.7121

[...]

          k = 0.4000-0.4619 0.0000 ( 94070 PWs)   bands (ev):

   -13.5436 -10.6647  -8.4497  -6.1711  -6.1204  -5.5583  -5.2746  -5.2009
    -4.9488  -4.7914  -4.4664  -4.3566  -4.2971  -4.2341  -4.1698  -4.0919
    -4.0794  -4.0020  -3.9702  -3.9095  -3.8772  -3.8643  -3.8440  -3.8221
    -3.7930  -3.7540  -3.7007  -3.6541  -3.6441  -3.6345  -3.6092  -3.5656
    -3.5017  -3.4041  -3.3861  -3.3409  -3.3018  -3.2630  -3.2421  -3.2133
    -3.1780  -3.0597  -3.0281  -3.0126  -2.9348  -2.8328  -2.8238  -2.7765
    -2.7227  -2.6975  -2.6740  -2.6265  -2.5607  -2.5189  -2.4978  -2.4710
    -2.4427  -2.4127  -2.3678  -2.3538  -2.3126  -2.2939  -2.2540  -2.2323
    -2.2072  -2.1801  -2.1776  -2.1576  -2.1284  -2.1102  -2.0555  -2.0263
    -1.9857  -1.9362  -1.9182  -1.8903  -1.7822  -1.7616  -1.7551  -1.7214
    -1.7027  -1.6785  -1.6507  -1.6101  -1.5623  -1.5511  -1.5360  -1.5109
    -1.4697  -1.4240  -1.3827  -1.3608  -1.3471  -1.3126  -1.3045  -1.2311
    -1.2079  -1.1699  -1.1584  -1.1250  -1.0996  -1.0806  -1.0567  -1.0547
    -1.0318  -1.0159  -0.9836  -0.9672  -0.9465  -0.9379  -0.9054  -0.8897
    -0.8837  -0.8751  -0.8423  -0.8256  -0.7769  -0.6283  -0.6032  -0.5564
    -0.5207  -0.4884  -0.4239  -0.4067  -0.3799  -0.3661  -0.3450  -0.3040
    -0.2922  -0.2782  -0.2478  -0.2101  -0.1791  -0.1365  -0.1270  -0.0359
    -0.0250  -0.0186   0.0562   0.0621   0.1517   0.1932   0.2095   0.2402
     0.2833   0.3170   0.3362   0.3606   0.3888   0.4038   0.4290   0.4399
     0.5102   0.5293   0.5507   0.5547   0.6159   0.6337   0.6734   0.6814
     0.7481   0.7979   0.8796   0.9129   0.9709   1.0311   1.0803   1.0985
     1.1475   1.1641   1.2262   1.2363   1.2774   1.3280   1.3721   1.3878
     1.4170   1.4399   1.4539   1.4990   1.5144   1.5757   1.5849   1.5931
     1.6114   1.6403   1.6537   1.6679   1.7407   1.7682   1.8196   1.8548
     1.8830   1.8859   1.9375   1.9618   2.0191   2.1262   2.6022   2.7838
     2.9556   3.0483   3.1158   3.2763   3.3432   3.3659   3.5623   3.7246
     3.8977   4.0681   4.1809   4.1892   4.5298   4.5390   4.7319   4.7585
     4.8688   4.9328   5.0021   5.1048   5.3223   5.4277   5.6747   5.9344
     6.1110   6.1504   6.2971

     the Fermi energy is     1.6602 ev

!    total energy              =  -27817.43151653 Ry

     total all-electron energy =  -1326877.489207 Ry
     estimated scf accuracy    <       0.00000031 Ry
     smearing contrib. (-TS)   =       0.00472066 Ry
     internal energy E=F+TS    =  -27817.43623719 Ry

     The total energy is F=E-TS. E is the sum of the following terms:
     one-electron contribution =  -30133.06771045 Ry
     hartree contribution      =   15367.87670775 Ry
     xc contribution           =    -908.25988002 Ry
     ewald contribution        =   13349.63716984 Ry
     one-center paw contrib.   =  -25493.62252432 Ry

     convergence has been achieved in  22 iterations

[...]

     Forces acting on atoms (cartesian axes, Ry/au):

     atom    1 type  1   force =    -0.00107671   -0.00053533   -0.00377354
     atom    2 type  1   force =     0.00107301   -0.00065552   -0.00396068
     atom    3 type  1   force =    -0.00015834   -0.00037019   -0.00402316
     atom    4 type  1   force =    -0.00017975    0.00124846   -0.00386781
     atom    5 type  1   force =    -0.00017626   -0.00002191   -0.00314477
     atom    6 type  1   force =     0.00002308    0.00003141   -0.00327074
     atom    7 type  1   force =    -0.00041196    0.00024538   -0.00390931
     atom    8 type  1   force =    -0.00011546    0.00010442   -0.00317222
     atom    9 type  1   force =     0.00019822    0.00020538   -0.00401659
     atom   10 type  1   force =     0.00028721   -0.00037579   -0.00650360
     atom   11 type  1   force =    -0.00188441    0.00097163    0.00372913
     atom   12 type  1   force =     0.00210426    0.00100605    0.00388016
     atom   13 type  1   force =     0.00018362   -0.00201925    0.00377114
     atom   14 type  1   force =     0.00001311    0.00018374    0.00990119
     atom   15 type  1   force =     0.00036377   -0.00218598    0.00360344
     atom   16 type  1   force =     0.00194092    0.00102402    0.00414284
     atom   17 type  1   force =    -0.00176438    0.00133926    0.00388494
     atom   18 type  1   force =     0.00018773    0.00004548    0.00135263
     atom   19 type  1   force =     0.00014377   -0.00018042   -0.00001717
     atom   20 type  1   force =     0.00008927   -0.00023316    0.00015115
     atom   21 type  1   force =     0.00030175   -0.00003242   -0.00000177
     atom   22 type  1   force =    -0.00002030    0.00010466    0.00054872
     atom   23 type  1   force =     0.00018118   -0.00005571    0.00002532
     atom   24 type  1   force =    -0.00029929   -0.00033013    0.00028266
     atom   25 type  1   force =    -0.00015669   -0.00023691    0.00033171
     atom   26 type  1   force =     0.00002370    0.00014431   -0.00010114
     atom   27 type  1   force =     0.00011465   -0.00014919    0.00052525
     atom   28 type  1   force =    -0.00023970    0.00013869    0.00073301
     atom   29 type  1   force =     0.00010054   -0.00035068    0.00054318
     atom   30 type  1   force =     0.00013808   -0.00032187    0.00021933
     atom   31 type  1   force =    -0.00026897    0.00012744    0.00056106
     atom   32 type  1   force =     0.00000425    0.00004276   -0.00013469
     atom   33 type  1   force =     0.00075560   -0.00040318    0.00013005
     atom   34 type  1   force =     0.00001503    0.00004120    0.00037116
     atom   35 type  1   force =    -0.00024054    0.00006976    0.00031784
     atom   36 type  1   force =     0.00029252    0.00011490    0.00029251
     atom   37 type  2   force =    -0.00201876    0.00039216    0.00083350
     atom   38 type  2   force =     0.00082326   -0.00023217   -0.00000306
     atom   39 type  2   force =    -0.00099283    0.00010214    0.00266142
     atom   40 type  3   force =     0.00015723   -0.00074026   -0.00009682
     atom   41 type  3   force =     0.00024841    0.00016122    0.00022415
     atom   42 type  3   force =    -0.00017515   -0.00129331    0.00000195
     atom   43 type  3   force =    -0.00027532    0.00070446   -0.00027597
     atom   44 type  3   force =     0.00069068    0.00217446   -0.00274635

     Total force =     0.005816     Total SCF correction =     0.000966
     SCF correction compared to forces is large: reduce conv_thr to get better values

[...]

     negative rho (up, down):  1.280E-02 0.000E+00

     negative rho (up, down):  1.280E-02 0.000E+00
 BEEFens 2000 ensemble energies
             -0.608045751491732E+02
             -0.361834435560925E+01
             -0.158555957654531E+02
              0.430431477966271E+02
             -0.221609701040069E+02
             -0.205550508809237E+02
             -0.353300279270534E+02
             -0.867012242354231E+02
             -0.465541100624502E+02
             -0.473425385748693E+02
             -0.370062225226737E+02
              0.228491700034054E+01
              0.407133044213168E+01
              0.760445339967052E+01
              0.266539028889804E+01
              0.475914366303515E+02
             -0.209179677223799E+02
             -0.230243571397239E+02
              0.193539214015879E+02
             -0.112600775571074E+03
              0.537465902191297E+02
             -0.290210764160360E+02
             -0.336955991296339E+01
             -0.114284223762633E+02
             -0.881746267795927E+01
             -0.463413143940548E+01
              0.884491739139983E+02
             -0.187780432421576E+02
             -0.901084440987950E+01
             -0.519540265809225E+02
              0.816731549800113E+02
             -0.187164675071277E+02
             -0.375848803540729E+02
              0.249459833348910E+02
             -0.285489633381485E+01
              0.164818236523379E+02
             -0.484782989934234E+01
              0.107980520790592E+02
              0.289269181426691E+02
             -0.103460714841387E+03
              0.559585855678217E+02
              0.142611091849279E+02
             -0.175827165775956E+01
             -0.361945874989131E+02
              0.123484674159821E+02
             -0.147304744836617E+02
              0.399572514892676E+02
              0.365449064329182E+02
             -0.308366380186450E+02
             -0.275722619328586E+02
             -0.329140622729687E+02
             -0.352902228241566E+02
              0.136879404207401E+02
             -0.491912105560730E+02
              0.115974852175478E+02
              0.624179927548014E+02
              0.636975797029916E+02
              0.356497728331684E+02
              0.154333316045031E+02
              0.271256447244289E+02
[...]
             -0.707737293809889E+02
             -0.861029656312667E+00
             -0.246519667039556E+01
             -0.884751084335596E+01
             -0.180363239887538E+01
             -0.654102991614199E+02
             -0.210693388489134E+02
              0.542522164924609E+01
              0.902790608110760E+01
              0.469962749340957E+02
             -0.398637605352670E+02
              0.658034649301062E+02
             -0.426051031094050E+02
              0.211048196436330E+02
              0.351189303802801E+02

 BEEF-vdW xc energy contributions
           1 :   -784.139086961009
           2 :    720.202010145365
           3 :   -609.566081471706
           4 :    479.399585121598
           5 :   -357.247871767128
           6 :    262.938338757651
           7 :   -204.102054533128
           8 :    176.166544816185
           9 :   -166.403083139784
          10 :    160.115291344417
          11 :   -146.447624117607
          12 :    121.623558012704
          13 :   -88.7708140543521
          14 :    54.9732858780557
          15 :   -27.2554672076858
          16 :    9.31719102951331
          17 :  -0.282015486212003
          18 :   -4.30214246847390
          19 :    9.94304539505981
          20 :   -20.4951123224919
          21 :    36.5036674695805
          22 :   -55.2505220308420
          23 :    72.3068446785102
          24 :   -83.7457173564661
          25 :    87.9253829467564
          26 :   -86.0624104051824
          27 :    81.4358980907402
          28 :   -77.6988478030472
          29 :    77.1419671818628
          30 :   -79.7339449661903
          31 :   -86.0898126958771
          32 :   -65.9544598314809

     Writing output data file ./pwscf.save/

     General routines

     Parallel routines

   This run was terminated on:  21:29:39  20May2022

   JOB DONE.