     Program PWSCF v.6.7MaX starts on  4Jan2023 at 10:33: 8

     Reading input from cch2c-bi-ensemble.in
Warning: card &CELL ignored
Warning: card / ignored

     Current dimensions of program PWSCF are:
     Max number of different atomic species (ntypx) = 10
     Max number of k-points (npk) =  40000
     Max angular momentum in pseudopotentials (lmaxx) =  3
     file Pt.pbe-n-kjpaw_psl.1.0.0.UPF: wavefunction(s)  6S 5D renormalized
     file C.pbe-n-kjpaw_psl.1.0.0.UPF: wavefunction(s)  2S 2P renormalized
     file H.pbe-kjpaw_psl.1.0.0.UPF: wavefunction(s)  1S renormalized

     IMPORTANT: XC functional enforced from input :
     Exchange-correlation= BEEF-VDW
                           (   1   4  43  14   2   0   0)
     Any further DFT definition will be discarded
     Please, verify this is what you really want

     Subspace diagonalization in iterative solution of the eigenvalue problem:
     a serial algorithm will be used

     bravais-lattice index     =            0
     lattice parameter (alat)  =      16.0349  a.u.
     unit-cell volume          =   11351.0048 (a.u.)^3
     number of atoms/cell      =           41
     number of atomic types    =            3
     number of electrons       =       374.00
     number of Kohn-Sham states=          224
     kinetic-energy cutoff     =      60.0000  Ry
     charge density cutoff     =     240.0000  Ry
     scf convergence threshold =      1.0E-06
     mixing beta               =       0.7000
     number of iterations used =            8  local-TF  mixing
     Exchange-correlation= BEEF-VDW
                           (   1   4  43  14   2   0   0)

     celldm(1)=  16.034858  celldm(2)=   0.000000  celldm(3)=   0.000000
     celldm(4)=   0.000000  celldm(5)=   0.000000  celldm(6)=   0.000000

     crystal axes: (cart. coord. in units of alat)
               a(1) = (   1.000000   0.000000   0.000000 )
               a(2) = (   0.500000   0.866025   0.000000 )
               a(3) = (   0.000000   0.000000   3.179130 )

     reciprocal axes: (cart. coord. in units 2 pi/alat)
               b(1) = (  1.000000 -0.577350  0.000000 )
               b(2) = (  0.000000  1.154701  0.000000 )
               b(3) = (  0.000000  0.000000  0.314551 )

     PseudoPot. # 1 for Pt read from file:
     /users/bkreitz1/quantum-espresso/potentials/Pt.pbe-n-kjpaw_psl.1.0.0.UPF
     MD5 check sum: 04dc8a03c51ece93fc7b5889c2958091
     Pseudo is Projector augmented-wave + core cor, Zval = 10.0
     Generated using 'atomic' code by A. Dal Corso  v.6.7MaX
     Shape of augmentation charge: PSQ
     Using radial grid of 1277 points,  6 beta functions with:
                l(1) =   0
                l(2) =   0
                l(3) =   1
                l(4) =   1
                l(5) =   2
                l(6) =   2
     Q(r) pseudized with 0 coefficients

     PseudoPot. # 2 for C  read from file:
     /users/bkreitz1/quantum-espresso/potentials/C.pbe-n-kjpaw_psl.1.0.0.UPF
     MD5 check sum: a169b0ebad56f5ec0d79c4633f80bf22
     Pseudo is Projector augmented-wave + core cor, Zval =  4.0
     Generated using 'atomic' code by A. Dal Corso  v.6.7MaX
     Shape of augmentation charge: PSQ
     Using radial grid of 1073 points,  4 beta functions with:
                l(1) =   0
                l(2) =   0
                l(3) =   1
                l(4) =   1
     Q(r) pseudized with 0 coefficients

     PseudoPot. # 3 for H  read from file:
     /users/bkreitz1/quantum-espresso/potentials/H.pbe-kjpaw_psl.1.0.0.UPF
     MD5 check sum: ae98473e6dc62675f0d0baffdab24f65
     Pseudo is Projector augmented-wave, Zval =  1.0
     Generated using 'atomic' code by A. Dal Corso  v.6.7MaX
     Shape of augmentation charge: PSQ
     Using radial grid of  929 points,  2 beta functions with:
                l(1) =   0
                l(2) =   0
     Q(r) pseudized with 0 coefficients

     atomic species   valence    mass     pseudopotential
        Pt            10.00   195.08400     Pt( 1.00)
        C              4.00    12.01100     C ( 1.00)
        H              1.00     1.00800     H ( 1.00)

     No symmetry found

   Cartesian axes

     site n.     atom                  positions (alat units)
         1           Pt  tau(   1) = (   0.0000000   0.0000000   1.0017346  )
         2           Pt  tau(   2) = (   0.3333333   0.0000000   1.0017346  )
         3           Pt  tau(   3) = (   0.6666667   0.0000000   1.0017346  )
         4           Pt  tau(   4) = (   0.1666667   0.2886751   1.0017346  )
         5           Pt  tau(   5) = (   0.5000000   0.2886751   1.0017346  )
         6           Pt  tau(   6) = (   0.8333333   0.2886751   1.0017346  )
         7           Pt  tau(   7) = (   0.3333333   0.5773503   1.0017346  )
         8           Pt  tau(   8) = (   0.6666667   0.5773503   1.0017346  )
         9           Pt  tau(   9) = (   1.0000000   0.5773503   1.0017346  )
        10           Pt  tau(  10) = (   0.1666667   0.0962250   1.2739001  )
        11           Pt  tau(  11) = (   0.5000000   0.0962250   1.2739001  )
        12           Pt  tau(  12) = (   0.8333333   0.0962250   1.2739001  )
        13           Pt  tau(  13) = (   0.3333333   0.3849002   1.2739001  )
        14           Pt  tau(  14) = (   0.6666667   0.3849002   1.2739001  )
        15           Pt  tau(  15) = (   1.0000000   0.3849002   1.2739001  )
        16           Pt  tau(  16) = (   0.5000000   0.6735753   1.2739001  )
        17           Pt  tau(  17) = (   0.8333333   0.6735753   1.2739001  )
        18           Pt  tau(  18) = (   1.1666667   0.6735753   1.2739001  )
        19           Pt  tau(  19) = (  -0.0001676   0.1938868   1.5465014  )
        20           Pt  tau(  20) = (   0.3402306   0.1870408   1.5601101  )
        21           Pt  tau(  21) = (   0.6658186   0.1913603   1.5490974  )
        22           Pt  tau(  22) = (   0.1642438   0.4790040   1.5468325  )
        23           Pt  tau(  23) = (   0.4958044   0.4748119   1.5420305  )
        24           Pt  tau(  24) = (   0.8341827   0.4795271   1.5409838  )
        25           Pt  tau(  25) = (   0.3329817   0.7687525   1.5425922  )
        26           Pt  tau(  26) = (   0.6690754   0.7748553   1.5423319  )
        27           Pt  tau(  27) = (   0.9993094   0.7689427   1.5496381  )
        28           Pt  tau(  28) = (  -0.0042787   0.0022900   1.8160586  )
        29           Pt  tau(  29) = (   0.3318298  -0.0069824   1.8693568  )
        30           Pt  tau(  30) = (   0.6671528  -0.0031899   1.8196116  )
        31           Pt  tau(  31) = (   0.1746098   0.2809652   1.8219644  )
        32           Pt  tau(  32) = (   0.5012123   0.2881412   1.8665318  )
        33           Pt  tau(  33) = (   0.8379077   0.2843966   1.8305386  )
        34           Pt  tau(  34) = (   0.3273749   0.5759675   1.8161028  )
        35           Pt  tau(  35) = (   0.6526630   0.5831021   1.7997993  )
        36           Pt  tau(  36) = (   1.0041186   0.5708480   1.8324898  )
        37           C   tau(  37) = (   0.6880201   0.4043171   1.9642509  )
        38           C   tau(  38) = (   0.7540847   0.5206840   2.0892405  )
        39           C   tau(  39) = (   0.8238109   0.6371978   1.9658064  )
        40           H   tau(  40) = (   0.6600608   0.5752413   2.1585752  )
        41           H   tau(  41) = (   0.8421686   0.4689590   2.1692990  )

     number of k points=    13  Marzari-Vanderbilt smearing, width (Ry)=  0.0200
                       cart. coord. in units 2pi/alat
        k(    1) = (   0.0000000   0.0000000   0.0000000), wk =   0.0800000
        k(    2) = (   0.0000000   0.2309401   0.0000000), wk =   0.1600000
        k(    3) = (   0.0000000   0.4618802   0.0000000), wk =   0.1600000
        k(    4) = (   0.2000000  -0.1154701   0.0000000), wk =   0.1600000
        k(    5) = (   0.2000000   0.1154701   0.0000000), wk =   0.1600000
        k(    6) = (   0.2000000   0.3464102   0.0000000), wk =   0.1600000
        k(    7) = (   0.2000000  -0.5773503   0.0000000), wk =   0.1600000
        k(    8) = (   0.2000000  -0.3464102   0.0000000), wk =   0.1600000
        k(    9) = (   0.4000000  -0.2309401   0.0000000), wk =   0.1600000
        k(   10) = (   0.4000000  -0.0000000   0.0000000), wk =   0.1600000
        k(   11) = (   0.4000000   0.2309401   0.0000000), wk =   0.1600000
        k(   12) = (   0.4000000  -0.6928203   0.0000000), wk =   0.1600000
        k(   13) = (   0.4000000  -0.4618802   0.0000000), wk =   0.1600000

     Check: negative core charge=   -0.000002

     Initial potential from superposition of free atoms

     starting charge  373.99375, renormalised to  374.00000

     negative rho (up, down):  1.176E-02 0.000E+00

     %%%%%%%%%%%%%%%%%%%%%%%%%%%%%%%%%%%%%%%%%%%%%%%%%%%%%%%%%%%%%%%%%%%%%%%%
     %                                                                      %
     % You are using vdW-DF, which was implemented by the Thonhauser group. %
     % Please cite the following two papers that made this development      %
     % possible and the two reviews that describe the various versions:     %
     %                                                                      %
     %   T. Thonhauser et al., PRL 115, 136402 (2015).                      %
     %   T. Thonhauser et al., PRB 76, 125112 (2007).                       %
     %   K. Berland et al., Rep. Prog. Phys. 78, 066501 (2015).             %
     %   D.C. Langreth et al., J. Phys.: Condens. Matter 21, 084203 (2009). %
     %                                                                      %
     %                                                                      %
     % If you are calculating the stress with vdW-DF, please also cite:     %
     %                                                                      %
     %   R. Sabatini et al., J. Phys.: Condens. Matter 24, 424209 (2012).   %
     %                                                                      %
     %%%%%%%%%%%%%%%%%%%%%%%%%%%%%%%%%%%%%%%%%%%%%%%%%%%%%%%%%%%%%%%%%%%%%%%%

     Starting wfcs are  338 randomized atomic wfcs
     Checking if some PAW data can be deallocated...

     Self-consistent Calculation

     iteration #  1     ecut=    60.00 Ry     beta= 0.70
     Davidson diagonalization with overlap
     ethr =  1.00E-02,  avg # of iterations =  2.0

     Threshold (ethr) on eigenvalues was too large:
     Diagonalizing with lowered threshold

     Davidson diagonalization with overlap
     ethr =  7.79E-04,  avg # of iterations =  2.8

[...]

     total energy              =  -27813.17901539 Ry
     estimated scf accuracy    <       3.23009112 Ry

[...]

     iteration #  4     ecut=    60.00 Ry     beta= 0.70
     Davidson diagonalization with overlap
     c_bands:  1 eigenvalues not converged
     c_bands:  1 eigenvalues not converged
     ethr =  1.54E-04,  avg # of iterations =  9.6

[...]

     iteration # 11     ecut=    60.00 Ry     beta= 0.70
     Davidson diagonalization with overlap
     c_bands:  1 eigenvalues not converged
     ethr =  2.55E-07,  avg # of iterations =  5.5

[...]

     total energy              =  -27813.58205520 Ry
     estimated scf accuracy    <       0.00000338 Ry

     iteration # 19     ecut=    60.00 Ry     beta= 0.70
     Davidson diagonalization with overlap
     ethr =  6.81E-10,  avg # of iterations =  1.1

[...]

     End of self-consistent calculation

          k = 0.0000 0.0000 0.0000 ( 89081 PWs)   bands (ev):

   -13.9297  -9.6942  -8.6745  -6.6793  -5.6378  -5.3613  -5.2449  -4.5260
    -4.3840  -4.3593  -4.3269  -4.3240  -4.3204  -4.2510  -4.2352  -4.1312
    -3.8524  -3.8425  -3.7777  -3.7664  -3.7575  -3.7223  -3.5202  -3.5029
    -3.4369  -3.3978  -3.3363  -3.1818  -3.1529  -3.1431  -3.1272  -3.1148
    -3.1078  -3.0675  -3.0027  -2.9732  -2.9697  -2.9273  -2.9200  -2.8403
    -2.8070  -2.7924  -2.7621  -2.7410  -2.7025  -2.5956  -2.3893  -2.3822
    -2.3412  -2.2709  -2.2440  -2.2406  -2.1807  -2.1581  -2.1452  -2.1278
    -2.1103  -2.0429  -2.0138  -2.0002  -1.9350  -1.9194  -1.6876  -1.6296
    -1.5890  -1.5697  -1.5516  -1.4891  -1.4493  -1.4411  -1.3860  -1.3479
    -1.3251  -1.3242  -1.2760  -1.2554  -1.2421  -1.2337  -1.2166  -1.1998
    -1.1740  -1.1701  -1.1613  -1.1419  -1.1374  -1.1307  -1.1062  -1.0881
    -1.0587  -1.0487  -0.9773  -0.9220  -0.8771  -0.8485  -0.8075  -0.8058
    -0.7709  -0.7599  -0.7378  -0.7124  -0.6584  -0.6554  -0.6405  -0.6321
    -0.5989  -0.5974  -0.5926  -0.5079  -0.4861  -0.4449  -0.4398  -0.4078
    -0.3669  -0.3488  -0.3429  -0.3067  -0.2191  -0.0893  -0.0760   0.0042
     0.0529   0.0807   0.1538   0.1910   0.2167   0.2494   0.2541   0.2592
     0.2634   0.2886   0.2966   0.3125   0.3211   0.3954   0.4968   0.5314
     0.5355   0.5375   0.5663   0.5736   0.7045   0.7148   0.7500   0.7558
     0.8081   0.8254   0.8372   0.8626   0.8700   0.9145   0.9265   1.0139
     1.0331   1.0377   1.0681   1.0935   1.1299   1.1426   1.1501   1.1724
     1.1854   1.1872   1.2131   1.2361   1.2723   1.2742   1.2929   1.2945
     1.3032   1.3296   1.3404   1.3689   1.4042   1.4091   1.4587   1.4634
     1.4750   1.5037   1.5332   1.5602   1.5647   1.5773   1.5925   1.6045
     1.6225   1.6384   1.6522   1.6659   1.7005   1.7268   1.7829   1.7861
     1.8796   1.8996   1.9323   1.9788   1.9893   2.0086   2.0374   2.0608
     2.3006   2.4144   2.4375   2.5949   2.6871   2.8524   2.9196   3.5741
     3.7991   3.9286   4.2919   4.8881   5.0976   5.2712   5.3593   5.3899
     5.8664   6.1225   6.4164   6.7399   6.7956   6.9368   6.9586   6.9731

[...]

          k = 0.4000-0.4619 0.0000 ( 89080 PWs)   bands (ev):

   -13.9277  -9.7060  -8.6285  -5.8584  -5.7209  -5.3981  -5.3137  -5.1466
    -4.5584  -4.4319  -4.3892  -4.0615  -3.9830  -3.9085  -3.8596  -3.7148
    -3.7079  -3.6576  -3.6346  -3.6040  -3.5639  -3.5169  -3.5006  -3.4760
    -3.4614  -3.4160  -3.3487  -3.3075  -3.2802  -3.2505  -3.2237  -3.1858
    -3.1693  -3.1268  -3.0748  -3.0309  -2.9897  -2.9074  -2.8914  -2.8615
    -2.8295  -2.7795  -2.6812  -2.6435  -2.5740  -2.5235  -2.4707  -2.4128
    -2.3936  -2.3672  -2.3354  -2.2423  -2.2195  -2.1696  -2.1512  -2.1165
    -2.1010  -2.0386  -2.0098  -1.9897  -1.9837  -1.9394  -1.9091  -1.8639
    -1.8429  -1.8098  -1.7980  -1.7676  -1.7472  -1.7343  -1.7025  -1.6524
    -1.6261  -1.5993  -1.5581  -1.5060  -1.4364  -1.4182  -1.4023  -1.3761
    -1.3416  -1.3006  -1.2834  -1.2579  -1.2196  -1.1932  -1.1717  -1.1629
    -1.0448  -1.0188  -1.0021  -0.9939  -0.9489  -0.9457  -0.9077  -0.8421
    -0.8385  -0.8185  -0.7767  -0.7700  -0.7276  -0.7125  -0.7042  -0.6908
    -0.6514  -0.6349  -0.6048  -0.5817  -0.5602  -0.5363  -0.5354  -0.5262
    -0.4998  -0.4476  -0.4317  -0.3754  -0.2750  -0.2692  -0.2394  -0.1841
    -0.1173  -0.0946  -0.0831  -0.0422  -0.0120   0.0151   0.0483   0.0771
     0.0894   0.1261   0.1651   0.1719   0.2626   0.2714   0.2897   0.3195
     0.3465   0.3822   0.4479   0.4785   0.5007   0.5369   0.6104   0.6308
     0.6615   0.6692   0.6952   0.7088   0.7289   0.7588   0.8193   0.8494
     0.8635   0.8970   0.9261   0.9438   0.9856   0.9894   1.0701   1.1532
     1.1699   1.2440   1.2807   1.3640   1.3914   1.4237   1.4494   1.4569
     1.5126   1.5664   1.5987   1.6290   1.6661   1.6947   1.7167   1.7513
     1.7767   1.7936   1.8386   1.8571   1.8768   1.9013   1.9235   1.9451
     1.9829   2.0377   2.0853   2.1046   2.1229   2.1665   2.2054   2.2418
     2.2613   2.3311   2.4407   2.5014   2.6926   2.8563   3.0358   3.2228
     3.4145   3.4703   3.6248   3.6823   3.8118   3.9130   4.0012   4.1463
     4.4167   4.4668   4.5163   4.6978   4.9113   4.9853   5.1684   5.2433
     5.2757   5.3677   5.4900   5.6733   5.8101   6.1248   6.3279   6.4204

     the Fermi energy is     1.9987 ev

!    total energy              =  -27813.58205447 Ry

     total all-electron energy =  -1326873.639758 Ry
     estimated scf accuracy    <       0.00000047 Ry
     smearing contrib. (-TS)   =       0.00652946 Ry
     internal energy E=F+TS    =  -27813.58858394 Ry

     The total energy is F=E-TS. E is the sum of the following terms:
     one-electron contribution =  -27115.34702309 Ry
     hartree contribution      =   13862.18651103 Ry
     xc contribution           =    -905.76270755 Ry
     ewald contribution        =   11838.99101502 Ry
     one-center paw contrib.   =  -25493.65637935 Ry

     convergence has been achieved in  19 iterations

[...]

     Forces acting on atoms (cartesian axes, Ry/au):

     atom    1 type  1   force =    -0.00170991   -0.00144964   -0.00558414
     atom    2 type  1   force =     0.00141585   -0.00094474   -0.00359611
     atom    3 type  1   force =     0.00010018    0.00010473   -0.00565609
     atom    4 type  1   force =    -0.00039757    0.00035286   -0.00206998
     atom    5 type  1   force =     0.00173430   -0.00041681   -0.00374488
     atom    6 type  1   force =    -0.00043157   -0.00027314   -0.00406157
     atom    7 type  1   force =     0.00055119    0.00236294   -0.00554332
     atom    8 type  1   force =    -0.00025877    0.00031219   -0.00519026
     atom    9 type  1   force =     0.00024086    0.00075778   -0.00401196
     atom   10 type  1   force =     0.00549171    0.00818479   -0.00096187
     atom   11 type  1   force =    -0.00431334    0.00182798    0.01460719
     atom   12 type  1   force =     0.00201996    0.00084115    0.00495100
     atom   13 type  1   force =    -0.00527383   -0.00927071   -0.00133223
     atom   14 type  1   force =    -0.00343129   -0.00370155    0.00630637
     atom   15 type  1   force =     0.00469535   -0.00293388    0.00570672
     atom   16 type  1   force =     0.00023268   -0.00038054   -0.00184344
     atom   17 type  1   force =     0.00127749    0.00426906    0.00713118
     atom   18 type  1   force =    -0.00025766   -0.00260852    0.00502467
     atom   19 type  1   force =     0.00013737   -0.00010052    0.00044257
     atom   20 type  1   force =     0.00000691    0.00022572   -0.00065621
     atom   21 type  1   force =    -0.00004194    0.00042971    0.00037245
     atom   22 type  1   force =    -0.00002615   -0.00040350    0.00038041
     atom   23 type  1   force =    -0.00056231   -0.00030315   -0.00011265
     atom   24 type  1   force =     0.00030282    0.00008051   -0.00019308
     atom   25 type  1   force =    -0.00035986    0.00044279    0.00016053
     atom   26 type  1   force =    -0.00013563    0.00010585    0.00019324
     atom   27 type  1   force =    -0.00050690   -0.00012695    0.00031437
     atom   28 type  1   force =    -0.00011308    0.00013534   -0.00002335
     atom   29 type  1   force =    -0.00023116   -0.00057911   -0.00041599
     atom   30 type  1   force =    -0.00049157    0.00002089   -0.00022075
     atom   31 type  1   force =    -0.00050646    0.00036881    0.00054712
     atom   32 type  1   force =     0.00040503   -0.00005771    0.00024405
     atom   33 type  1   force =    -0.00024959   -0.00043030   -0.00012024
     atom   34 type  1   force =    -0.00073460    0.00010566   -0.00025071
     atom   35 type  1   force =     0.00010869    0.00000261    0.00029620
     atom   36 type  1   force =    -0.00089843    0.00010637   -0.00038361
     atom   37 type  2   force =     0.00157847    0.00071496    0.00010876
     atom   38 type  2   force =     0.00411764   -0.00089086    0.00554591
     atom   39 type  2   force =     0.00068522    0.00103130    0.00001657
     atom   40 type  3   force =    -0.00001645   -0.00012773   -0.00047737
     atom   41 type  3   force =    -0.00415362    0.00221535   -0.00589949

     Total force =     0.010802     Total SCF correction =     0.001488
     SCF correction compared to forces is large: reduce conv_thr to get better values

[...]

     negative rho (up, down):  1.300E-02 0.000E+00

     negative rho (up, down):  1.300E-02 0.000E+00
 BEEFens 2000 ensemble energies
             -0.605935425413604E+02
             -0.362535836916717E+01
             -0.158275879426688E+02
              0.429214733659186E+02
             -0.220864922166584E+02
             -0.205084587312062E+02
             -0.351717921634067E+02
             -0.864134921235045E+02
             -0.464596920861939E+02
             -0.472726397773970E+02
             -0.369037231419218E+02
              0.223091948980784E+01
              0.405752091430827E+01
              0.762352041910339E+01
              0.266541647121215E+01
              0.474517983113744E+02
             -0.208758365381402E+02
             -0.230307841434458E+02
              0.192944959681980E+02
             -0.112250640499041E+03
              0.535818429327242E+02
             -0.289803891269673E+02
             -0.337030905748776E+01
             -0.114050253131582E+02
             -0.885002252513470E+01
             -0.465941200684063E+01
              0.881814754209709E+02
             -0.186878336439608E+02
             -0.900370747291447E+01
             -0.517900577985977E+02
              0.815133334487700E+02
             -0.187324634860124E+02
             -0.374913227654766E+02
              0.249123662796734E+02
             -0.285356889137580E+01
              0.163838142445219E+02
             -0.485792440967504E+01
              0.108035386892635E+02
              0.287681816349287E+02
             -0.103196389318804E+03
              0.557787141505576E+02
              0.142114404262979E+02
             -0.170337463854742E+01
             -0.361216834668626E+02
              0.123138012126457E+02
             -0.146542312459754E+02
              0.398250791647062E+02
              0.364461467076137E+02
             -0.307993305515354E+02
             -0.275013675370730E+02
             -0.328307033207053E+02
             -0.351570733471171E+02
              0.135647731509414E+02
             -0.490524720947051E+02
              0.115410299194670E+02
              0.622029302303923E+02
              0.634577546089619E+02
              0.355371052002258E+02
              0.153953948246710E+02
              0.269952702834512E+02
[...]
             -0.705417839444854E+02
             -0.909754931137513E+00
             -0.244845604025799E+01
             -0.882310174664258E+01
             -0.179401286320245E+01
             -0.652260784424518E+02
             -0.210845195326657E+02
              0.535884295392130E+01
              0.894652823591099E+01
              0.468447586265208E+02
             -0.397451088270400E+02
              0.656612413067409E+02
             -0.424959451458379E+02
              0.210012291901284E+02
              0.349996516203730E+02

 BEEF-vdW xc energy contributions
           1 :   -782.166042291181
           2 :    718.796322122563
           3 :   -608.889325313207
           4 :    479.244203790748
           5 :   -357.304388339321
           6 :    262.971435173538
           7 :   -203.987670663984
           8 :    175.862713176264
           9 :   -165.916445349258
          10 :    159.489831622394
          11 :   -145.764188218316
          12 :    120.990677564933
          13 :   -88.3006958685211
          14 :    54.7461508924555
          15 :   -27.2813632832929
          16 :    9.51913804289904
          17 :  -0.521453211486460
          18 :   -4.16469459878090
          19 :    9.98302557233103
          20 :   -20.6884709189108
          21 :    36.7392671257890
          22 :   -55.3868714255041
          23 :    72.2451539266416
          24 :   -83.4805889791061
          25 :    87.5472892615743
          26 :   -85.7126017434915
          27 :    81.2358109778017
          28 :   -77.6898523600756
          29 :    77.2653909649513
          30 :   -79.8591599532602
          31 :   -85.7865785574397
          32 :   -65.8098934086045

     Writing output data file ./pwscf.save/

     General routines

     Parallel routines

   This run was terminated on:  14:20:30   4Jan2023

   JOB DONE.