     Program PWSCF v.6.7MaX starts on 20May2022 at 16:44:13

     Reading input from cch2oh-ensemble.in
Warning: card &CELL ignored
Warning: card / ignored

     Current dimensions of program PWSCF are:
     Max number of different atomic species (ntypx) = 10
     Max number of k-points (npk) =  40000
     Max angular momentum in pseudopotentials (lmaxx) =  3
     file Pt.pbe-n-kjpaw_psl.1.0.0.UPF: wavefunction(s)  6S 5D renormalized
     file C.pbe-n-kjpaw_psl.1.0.0.UPF: wavefunction(s)  2S 2P renormalized
     file O.pbe-nl-kjpaw_psl.1.0.0.UPF: wavefunction(s)  2S 2P renormalized
     file H.pbe-kjpaw_psl.1.0.0.UPF: wavefunction(s)  1S renormalized

     IMPORTANT: XC functional enforced from input :
     Exchange-correlation= BEEF-VDW
                           (   1   4  43  14   2   0   0)
     Any further DFT definition will be discarded
     Please, verify this is what you really want

     Subspace diagonalization in iterative solution of the eigenvalue problem:
     a serial algorithm will be used

     bravais-lattice index     =            0
     lattice parameter (alat)  =      16.0349  a.u.
     unit-cell volume          =   11804.6375 (a.u.)^3
     number of atoms/cell      =           42
     number of atomic types    =            4
     number of electrons       =       377.00
     number of Kohn-Sham states=          227
     kinetic-energy cutoff     =      60.0000  Ry
     charge density cutoff     =     240.0000  Ry
     scf convergence threshold =      1.0E-06
     mixing beta               =       0.7000
     number of iterations used =            8  local-TF  mixing
     Exchange-correlation= BEEF-VDW
                           (   1   4  43  14   2   0   0)

     celldm(1)=  16.034858  celldm(2)=   0.000000  celldm(3)=   0.000000
     celldm(4)=   0.000000  celldm(5)=   0.000000  celldm(6)=   0.000000

     crystal axes: (cart. coord. in units of alat)
               a(1) = (   1.000000   0.000000   0.000000 )
               a(2) = (   0.500000   0.866025   0.000000 )
               a(3) = (   0.000000   0.000000   3.306181 )

     reciprocal axes: (cart. coord. in units 2 pi/alat)
               b(1) = (  1.000000 -0.577350  0.000000 )
               b(2) = (  0.000000  1.154701  0.000000 )
               b(3) = (  0.000000  0.000000  0.302464 )

     PseudoPot. # 1 for Pt read from file:
     /users/bkreitz1/quantum-espresso/potentials/Pt.pbe-n-kjpaw_psl.1.0.0.UPF
     MD5 check sum: 04dc8a03c51ece93fc7b5889c2958091
     Pseudo is Projector augmented-wave + core cor, Zval = 10.0
     Generated using 'atomic' code by A. Dal Corso  v.6.7MaX
     Shape of augmentation charge: PSQ
     Using radial grid of 1277 points,  6 beta functions with:
                l(1) =   0
                l(2) =   0
                l(3) =   1
                l(4) =   1
                l(5) =   2
                l(6) =   2
     Q(r) pseudized with 0 coefficients

     PseudoPot. # 2 for C  read from file:
     /users/bkreitz1/quantum-espresso/potentials/C.pbe-n-kjpaw_psl.1.0.0.UPF
     MD5 check sum: a169b0ebad56f5ec0d79c4633f80bf22
     Pseudo is Projector augmented-wave + core cor, Zval =  4.0
     Generated using 'atomic' code by A. Dal Corso  v.6.7MaX
     Shape of augmentation charge: PSQ
     Using radial grid of 1073 points,  4 beta functions with:
                l(1) =   0
                l(2) =   0
                l(3) =   1
                l(4) =   1
     Q(r) pseudized with 0 coefficients

     PseudoPot. # 3 for O  read from file:
     /users/bkreitz1/quantum-espresso/potentials/O.pbe-nl-kjpaw_psl.1.0.0.UPF
     MD5 check sum: eef08af8b58d9ec80f8fdb78829eb7cf
     Pseudo is Projector augmented-wave + core cor, Zval =  6.0
     Generated using 'atomic' code by A. Dal Corso  v.6.7MaX
     Shape of augmentation charge: PSQ
     Using radial grid of 1095 points,  4 beta functions with:
                l(1) =   0
                l(2) =   0
                l(3) =   1
                l(4) =   1
     Q(r) pseudized with 0 coefficients

     PseudoPot. # 4 for H  read from file:
     /users/bkreitz1/quantum-espresso/potentials/H.pbe-kjpaw_psl.1.0.0.UPF
     MD5 check sum: ae98473e6dc62675f0d0baffdab24f65
     Pseudo is Projector augmented-wave, Zval =  1.0
     Generated using 'atomic' code by A. Dal Corso  v.6.7MaX
     Shape of augmentation charge: PSQ
     Using radial grid of  929 points,  2 beta functions with:
                l(1) =   0
                l(2) =   0
     Q(r) pseudized with 0 coefficients

     atomic species   valence    mass     pseudopotential
        Pt            10.00   195.08400     Pt( 1.00)
        C              4.00    12.01100     C ( 1.00)
        O              6.00    15.99900     O ( 1.00)
        H              1.00     1.00800     H ( 1.00)

     No symmetry found

   Cartesian axes

     site n.     atom                  positions (alat units)
         1           Pt  tau(   1) = (   0.0000000   0.0000000   1.0017346  )
         2           Pt  tau(   2) = (   0.3333333   0.0000000   1.0017346  )
         3           Pt  tau(   3) = (   0.6666667   0.0000000   1.0017346  )
         4           Pt  tau(   4) = (   0.1666667   0.2886751   1.0017346  )
         5           Pt  tau(   5) = (   0.5000000   0.2886751   1.0017346  )
         6           Pt  tau(   6) = (   0.8333333   0.2886751   1.0017346  )
         7           Pt  tau(   7) = (   0.3333333   0.5773503   1.0017346  )
         8           Pt  tau(   8) = (   0.6666667   0.5773503   1.0017346  )
         9           Pt  tau(   9) = (   1.0000000   0.5773503   1.0017346  )
        10           Pt  tau(  10) = (   0.1666667   0.0962250   1.2739001  )
        11           Pt  tau(  11) = (   0.5000000   0.0962250   1.2739001  )
        12           Pt  tau(  12) = (   0.8333333   0.0962250   1.2739001  )
        13           Pt  tau(  13) = (   0.3333333   0.3849002   1.2739001  )
        14           Pt  tau(  14) = (   0.6666667   0.3849002   1.2739001  )
        15           Pt  tau(  15) = (   1.0000000   0.3849002   1.2739001  )
        16           Pt  tau(  16) = (   0.5000000   0.6735753   1.2739001  )
        17           Pt  tau(  17) = (   0.8333333   0.6735753   1.2739001  )
        18           Pt  tau(  18) = (   1.1666667   0.6735753   1.2739001  )
        19           Pt  tau(  19) = (  -0.0030540   0.1931634   1.5453060  )
        20           Pt  tau(  20) = (   0.3334341   0.1931748   1.5458089  )
        21           Pt  tau(  21) = (   0.6651061   0.1932033   1.5461052  )
        22           Pt  tau(  22) = (   0.1653637   0.4808108   1.5425565  )
        23           Pt  tau(  23) = (   0.4993835   0.4805990   1.5464603  )
        24           Pt  tau(  24) = (   0.8310770   0.4804621   1.5458710  )
        25           Pt  tau(  25) = (   0.3321555   0.7697711   1.5426145  )
        26           Pt  tau(  26) = (   0.6652282   0.7677242   1.5454855  )
        27           Pt  tau(  27) = (   0.9984053   0.7697024   1.5426380  )
        28           Pt  tau(  28) = (  -0.0031107  -0.0005924   1.8176938  )
        29           Pt  tau(  29) = (   0.3299459  -0.0007906   1.8176729  )
        30           Pt  tau(  30) = (   0.6635038  -0.0037206   1.8170817  )
        31           Pt  tau(  31) = (   0.1630016   0.2881631   1.8176053  )
        32           Pt  tau(  32) = (   0.4919241   0.2857918   1.8335770  )
        33           Pt  tau(  33) = (   0.8333216   0.2861708   1.8329502  )
        34           Pt  tau(  34) = (   0.3271484   0.5787460   1.8172703  )
        35           Pt  tau(  35) = (   0.6638813   0.5804703   1.8340606  )
        36           Pt  tau(  36) = (   0.9996986   0.5784950   1.8169683  )
        37           C   tau(  37) = (   0.6617872   0.3826000   1.9657171  )
        38           C   tau(  38) = (   0.6599906   0.3811677   2.1428372  )
        39           O   tau(  39) = (   0.8032289   0.4494094   2.2020729  )
        40           H   tau(  40) = (   0.5567278   0.4483105   2.1830301  )
        41           H   tau(  41) = (   0.6467526   0.2585627   2.1820082  )
        42           H   tau(  42) = (   0.8189774   0.4108861   2.3091860  )

     number of k points=    13  Marzari-Vanderbilt smearing, width (Ry)=  0.0200
                       cart. coord. in units 2pi/alat
        k(    1) = (   0.0000000   0.0000000   0.0000000), wk =   0.0800000
        k(    2) = (   0.0000000   0.2309401   0.0000000), wk =   0.1600000
        k(    3) = (   0.0000000   0.4618802   0.0000000), wk =   0.1600000
        k(    4) = (   0.2000000  -0.1154701   0.0000000), wk =   0.1600000
        k(    5) = (   0.2000000   0.1154701   0.0000000), wk =   0.1600000
        k(    6) = (   0.2000000   0.3464102   0.0000000), wk =   0.1600000
        k(    7) = (   0.2000000  -0.5773503   0.0000000), wk =   0.1600000
        k(    8) = (   0.2000000  -0.3464102   0.0000000), wk =   0.1600000
        k(    9) = (   0.4000000  -0.2309401   0.0000000), wk =   0.1600000
        k(   10) = (   0.4000000  -0.0000000   0.0000000), wk =   0.1600000
        k(   11) = (   0.4000000   0.2309401   0.0000000), wk =   0.1600000
        k(   12) = (   0.4000000  -0.6928203   0.0000000), wk =   0.1600000
        k(   13) = (   0.4000000  -0.4618802   0.0000000), wk =   0.1600000

     Check: negative core charge=   -0.000002

     Initial potential from superposition of free atoms

     starting charge  376.99378, renormalised to  377.00000

     negative rho (up, down):  1.173E-02 0.000E+00

     %%%%%%%%%%%%%%%%%%%%%%%%%%%%%%%%%%%%%%%%%%%%%%%%%%%%%%%%%%%%%%%%%%%%%%%%
     %                                                                      %
     % You are using vdW-DF, which was implemented by the Thonhauser group. %
     % Please cite the following two papers that made this development      %
     % possible and the two reviews that describe the various versions:     %
     %                                                                      %
     %   T. Thonhauser et al., PRL 115, 136402 (2015).                      %
     %   T. Thonhauser et al., PRB 76, 125112 (2007).                       %
     %   K. Berland et al., Rep. Prog. Phys. 78, 066501 (2015).             %
     %   D.C. Langreth et al., J. Phys.: Condens. Matter 21, 084203 (2009). %
     %                                                                      %
     %                                                                      %
     % If you are calculating the stress with vdW-DF, please also cite:     %
     %                                                                      %
     %   R. Sabatini et al., J. Phys.: Condens. Matter 24, 424209 (2012).   %
     %                                                                      %
     %%%%%%%%%%%%%%%%%%%%%%%%%%%%%%%%%%%%%%%%%%%%%%%%%%%%%%%%%%%%%%%%%%%%%%%%

     Starting wfcs are  339 randomized atomic wfcs
     Checking if some PAW data can be deallocated...

     Self-consistent Calculation

     iteration #  1     ecut=    60.00 Ry     beta= 0.70
     Davidson diagonalization with overlap
     ethr =  1.00E-02,  avg # of iterations =  2.5

     Threshold (ethr) on eigenvalues was too large:
     Diagonalizing with lowered threshold

     Davidson diagonalization with overlap
     ethr =  6.87E-04,  avg # of iterations =  3.0

[...]

     total energy              =  -27838.10832955 Ry
     estimated scf accuracy    <       2.84310394 Ry

[...]

     iteration #  4     ecut=    60.00 Ry     beta= 0.70
     Davidson diagonalization with overlap
     c_bands:  1 eigenvalues not converged
     ethr =  1.20E-04,  avg # of iterations =  9.3

[...]

     iteration #  7     ecut=    60.00 Ry     beta= 0.70
     Davidson diagonalization with overlap
     c_bands:  1 eigenvalues not converged
     c_bands:  2 eigenvalues not converged
     c_bands:  1 eigenvalues not converged
     ethr =  3.49E-06,  avg # of iterations = 10.8

[...]

     total energy              =  -27838.41933783 Ry
     estimated scf accuracy    <       0.00000139 Ry

     iteration # 21     ecut=    60.00 Ry     beta= 0.70
     Davidson diagonalization with overlap
     ethr =  3.70E-10,  avg # of iterations =  1.8

[...]

     End of self-consistent calculation

          k = 0.0000 0.0000 0.0000 ( 92747 PWs)   bands (ev):

   -19.2898 -12.5173  -8.8785  -6.9606  -6.5479  -5.6884  -5.2674  -4.9867
    -4.6278  -4.6156  -4.5959  -4.5807  -4.5561  -4.5422  -4.5392  -4.3568
    -4.1925  -4.0799  -4.0342  -4.0220  -4.0160  -3.9569  -3.8411  -3.7572
    -3.5791  -3.5773  -3.5718  -3.4545  -3.3945  -3.3808  -3.3539  -3.3522
    -3.3510  -3.2475  -3.2301  -3.2190  -3.1536  -3.1517  -3.1356  -3.0921
    -3.0734  -3.0692  -3.0617  -3.0317  -3.0300  -2.7618  -2.6058  -2.5525
    -2.5004  -2.4953  -2.4888  -2.4868  -2.4273  -2.4263  -2.4200  -2.3658
    -2.2919  -2.2725  -2.2531  -2.2443  -2.1161  -2.0974  -1.9746  -1.7739
    -1.7659  -1.7051  -1.6922  -1.6905  -1.6459  -1.6037  -1.5331  -1.5306
    -1.5065  -1.4945  -1.4923  -1.4911  -1.4767  -1.4529  -1.4422  -1.4393
    -1.3977  -1.3969  -1.3899  -1.3802  -1.3752  -1.3186  -1.3028  -1.2916
    -1.2859  -1.2779  -1.2669  -1.0933  -1.0781  -1.0723  -1.0472  -1.0404
    -1.0358  -1.0342  -1.0254  -0.9681  -0.9665  -0.9521  -0.8639  -0.8635
    -0.8244  -0.8197  -0.7996  -0.7229  -0.7090  -0.6875  -0.6777  -0.6736
    -0.6615  -0.5966  -0.5576  -0.5186  -0.2380  -0.2287  -0.2037  -0.1791
    -0.1549  -0.1508  -0.1409  -0.1348  -0.1215  -0.0568  -0.0141  -0.0135
     0.0415   0.0492   0.0548   0.0850   0.0908   0.1267   0.1510   0.2012
     0.2944   0.3021   0.3230   0.3514   0.3859   0.3895   0.5399   0.5797
     0.5812   0.5990   0.6318   0.6380   0.6645   0.6895   0.7469   0.7525
     0.7834   0.8213   0.8431   0.8475   0.8638   0.9399   0.9519   0.9664
     1.0115   1.0155   1.0289   1.0326   1.0348   1.0428   1.0608   1.0626
     1.0654   1.1369   1.1380   1.1520   1.1552   1.1585   1.2288   1.2321
     1.2443   1.2489   1.2496   1.2901   1.2902   1.3360   1.3854   1.3896
     1.3913   1.3965   1.3973   1.4441   1.4694   1.4702   1.5090   1.5109
     1.5233   1.5350   1.5505   1.6791   1.6882   1.7916   1.7958   1.8018
     1.8338   1.8372   1.8542   2.3392   2.4076   2.4120   2.6365   2.7043
     2.7127   2.7372   3.7369   3.8491   4.6944   4.9986   5.0113   5.0330
     5.3759   5.4647   5.6101   6.4062   6.5642   6.6261   6.6345   6.6686
     6.7385   6.7781   6.8143

[...]

          k = 0.4000-0.4619 0.0000 ( 92664 PWs)   bands (ev):

   -19.2898 -12.5160  -8.8551  -6.5493  -6.0477  -5.9935  -5.4264  -5.2627
    -4.9498  -4.8015  -4.6558  -4.3175  -4.2362  -4.1222  -4.0977  -3.9989
    -3.9634  -3.9057  -3.8661  -3.8396  -3.7665  -3.7526  -3.7425  -3.7189
    -3.6818  -3.6457  -3.6244  -3.5525  -3.5257  -3.5188  -3.4952  -3.4826
    -3.3946  -3.3617  -3.2743  -3.2199  -3.1842  -3.1428  -3.1153  -3.0874
    -3.0630  -2.9231  -2.9068  -2.8610  -2.7816  -2.7312  -2.7015  -2.6821
    -2.6227  -2.5720  -2.5120  -2.4780  -2.4434  -2.3889  -2.3505  -2.3374
    -2.2921  -2.2646  -2.2225  -2.2125  -2.1880  -2.1542  -2.1198  -2.0951
    -2.0785  -2.0483  -2.0402  -2.0072  -1.9822  -1.9428  -1.9243  -1.8735
    -1.8130  -1.7985  -1.7666  -1.6756  -1.6469  -1.6352  -1.6123  -1.5782
    -1.5687  -1.5349  -1.4969  -1.4472  -1.4389  -1.4207  -1.3930  -1.3557
    -1.3101  -1.2588  -1.2395  -1.2212  -1.2003  -1.1915  -1.1229  -1.0861
    -1.0464  -1.0343  -1.0110  -0.9792  -0.9639  -0.9398  -0.9361  -0.9169
    -0.9026  -0.8678  -0.8404  -0.8321  -0.8122  -0.7825  -0.7761  -0.7638
    -0.7528  -0.7239  -0.7065  -0.6727  -0.5217  -0.4946  -0.4449  -0.4074
    -0.3828  -0.3096  -0.2922  -0.2756  -0.2503  -0.2260  -0.1879  -0.1750
    -0.1618  -0.1378  -0.1097  -0.0735  -0.0547  -0.0067   0.0031   0.0850
     0.0930   0.1004   0.1715   0.1782   0.2758   0.3103   0.3268   0.3665
     0.4079   0.4346   0.4556   0.4788   0.5090   0.5260   0.5529   0.5601
     0.6314   0.6519   0.6747   0.6808   0.7370   0.7559   0.7914   0.7985
     0.8648   0.9181   0.9943   1.0335   1.0939   1.1491   1.2007   1.2186
     1.2665   1.2833   1.3469   1.3539   1.3960   1.4428   1.4860   1.5027
     1.5348   1.5555   1.5710   1.6209   1.6369   1.6911   1.7049   1.7098
     1.7293   1.7603   1.7726   1.7848   1.8573   1.8829   1.9367   1.9754
     2.0032   2.0103   2.0587   2.0867   2.1357   2.2431   2.6989   2.8875
     3.0664   3.1682   3.2302   3.4023   3.4618   3.4782   3.6631   3.8454
     4.0217   4.1905   4.2911   4.3059   4.6477   4.6637   4.8321   4.8896
     4.9937   5.0520   5.1251   5.2405   5.4471   5.5462   5.7584   5.9355
     6.0929   6.2264   6.2820

     the Fermi energy is     1.7780 ev

!    total energy              =  -27838.41933750 Ry

     total all-electron energy =  -1326949.559835 Ry
     estimated scf accuracy    <       0.00000044 Ry
     smearing contrib. (-TS)   =       0.00492183 Ry
     internal energy E=F+TS    =  -27838.42425933 Ry

     The total energy is F=E-TS. E is the sum of the following terms:
     one-electron contribution =  -29256.55545309 Ry
     hartree contribution      =   14932.09269969 Ry
     xc contribution           =    -909.60449034 Ry
     ewald contribution        =   12892.85362523 Ry
     one-center paw contrib.   =  -25497.21064082 Ry

     convergence has been achieved in  21 iterations

[...]

     Forces acting on atoms (cartesian axes, Ry/au):

     atom    1 type  1   force =    -0.00093689   -0.00062997   -0.00421785
     atom    2 type  1   force =     0.00128668   -0.00051109   -0.00387990
     atom    3 type  1   force =     0.00028304   -0.00032995   -0.00418887
     atom    4 type  1   force =     0.00024320    0.00114622   -0.00393351
     atom    5 type  1   force =     0.00021792   -0.00000459   -0.00337407
     atom    6 type  1   force =     0.00026027   -0.00001027   -0.00341844
     atom    7 type  1   force =    -0.00001293    0.00029701   -0.00417602
     atom    8 type  1   force =     0.00019579    0.00005407   -0.00337336
     atom    9 type  1   force =     0.00052698    0.00020836   -0.00411374
     atom   10 type  1   force =    -0.00046306   -0.00020498   -0.00595093
     atom   11 type  1   force =    -0.00236489    0.00094459    0.00539410
     atom   12 type  1   force =     0.00142747    0.00078693    0.00436024
     atom   13 type  1   force =    -0.00040459   -0.00214687    0.00545312
     atom   14 type  1   force =    -0.00077084   -0.00006160    0.01061110
     atom   15 type  1   force =    -0.00027550   -0.00208014    0.00426435
     atom   16 type  1   force =     0.00123419    0.00106238    0.00462556
     atom   17 type  1   force =    -0.00221133    0.00112277    0.00437122
     atom   18 type  1   force =    -0.00044324    0.00002817    0.00221125
     atom   19 type  1   force =     0.00031334   -0.00005500   -0.00008817
     atom   20 type  1   force =     0.00002642   -0.00007172   -0.00027758
     atom   21 type  1   force =    -0.00000119   -0.00033264   -0.00021935
     atom   22 type  1   force =    -0.00013042   -0.00013255    0.00031141
     atom   23 type  1   force =    -0.00013110    0.00006256   -0.00047875
     atom   24 type  1   force =     0.00030548    0.00026291    0.00013695
     atom   25 type  1   force =    -0.00010974   -0.00005305    0.00010183
     atom   26 type  1   force =     0.00005692    0.00016023   -0.00021617
     atom   27 type  1   force =     0.00011529    0.00004998    0.00007394
     atom   28 type  1   force =    -0.00011801   -0.00025284    0.00005800
     atom   29 type  1   force =     0.00000572   -0.00023119    0.00024801
     atom   30 type  1   force =     0.00008485   -0.00032528    0.00003914
     atom   31 type  1   force =     0.00001804    0.00007462    0.00018096
     atom   32 type  1   force =     0.00023584    0.00027639    0.00006102
     atom   33 type  1   force =     0.00027531   -0.00007353   -0.00003214
     atom   34 type  1   force =     0.00022218   -0.00008173    0.00001229
     atom   35 type  1   force =    -0.00017661   -0.00033143   -0.00030221
     atom   36 type  1   force =     0.00051832    0.00026324   -0.00011466
     atom   37 type  2   force =     0.00151188    0.00153647   -0.00148509
     atom   38 type  2   force =    -0.00099020   -0.00077521    0.00155962
     atom   39 type  3   force =     0.00233520   -0.00548017    0.01620780
     atom   40 type  4   force =     0.00011790   -0.00031371   -0.00000338
     atom   41 type  4   force =     0.00021221    0.00019526   -0.00012044
     atom   42 type  4   force =    -0.00248989    0.00595738   -0.01631727

     Total force =     0.024889     Total SCF correction =     0.002079

[...]

     negative rho (up, down):  1.338E-02 0.000E+00

     negative rho (up, down):  1.338E-02 0.000E+00
 BEEFens 2000 ensemble energies
             -0.608812248524379E+02
             -0.362785341000574E+01
             -0.158873541308508E+02
              0.431079928882296E+02
             -0.221901775287052E+02
             -0.205948451934759E+02
             -0.353819899558305E+02
             -0.868315995961247E+02
             -0.466585405954783E+02
             -0.474495934482753E+02
             -0.370528175961581E+02
              0.227306071552896E+01
              0.406951230925520E+01
              0.763034442269563E+01
              0.267763983222775E+01
              0.476556211700479E+02
             -0.209721706592794E+02
             -0.230923789374883E+02
              0.193580745284900E+02
             -0.112773127688543E+03
              0.538347526536622E+02
             -0.290654249360821E+02
             -0.337849923823892E+01
             -0.114564516993991E+02
             -0.884665972962398E+01
             -0.467802501198176E+01
              0.885888747727702E+02
             -0.187661792282632E+02
             -0.904730007283911E+01
             -0.520239477437505E+02
              0.818330952427846E+02
             -0.187805524097307E+02
             -0.376524499208430E+02
              0.250105487908236E+02
             -0.286187957562890E+01
              0.164749776988652E+02
             -0.486207420403412E+01
              0.108283197867460E+02
              0.289121466633128E+02
             -0.103651566375009E+03
              0.560367379423822E+02
              0.142714907011741E+02
             -0.173795507778306E+01
             -0.362726516391334E+02
              0.123582737529229E+02
             -0.147354711534565E+02
              0.400141464265666E+02
              0.366112486598425E+02
             -0.309055233325806E+02
             -0.276179184746676E+02
             -0.329389070155161E+02
             -0.353285259578989E+02
              0.136608373320927E+02
             -0.492788716357505E+02
              0.116116613130720E+02
              0.625053593242010E+02
              0.637734451196012E+02
              0.357028672651714E+02
              0.154824688642761E+02
              0.271445333812229E+02
[...]
             -0.708671464256198E+02
             -0.890644059227043E+00
             -0.245036719476833E+01
             -0.886250054879156E+01
             -0.179504474217788E+01
             -0.655172695307550E+02
             -0.211399298609309E+02
              0.541703653772051E+01
              0.901023750726532E+01
              0.470539441037849E+02
             -0.399093444901397E+02
              0.659415882809423E+02
             -0.426695266134337E+02
              0.211131302344365E+02
              0.351737366558472E+02

 BEEF-vdW xc energy contributions
           1 :   -785.417067923759
           2 :    721.460749578361
           3 :   -610.778632798424
           4 :    480.530301474044
           5 :   -358.240636405659
           6 :    263.717605567168
           7 :   -204.603105737178
           8 :    176.375901007953
           9 :   -166.372632296087
          10 :    159.945637635317
          11 :   -146.253537497680
          12 :    121.495695189592
          13 :   -88.7486514789382
          14 :    55.0416708229201
          15 :   -27.3607108959568
          16 :    9.39776812767400
          17 :  -0.302326943849948
          18 :   -4.33623364136315
          19 :    9.99686632514624
          20 :   -20.5308144545455
          21 :    36.4986835309413
          22 :   -55.2000166246175
          23 :    72.2129515702140
          24 :   -83.6045932882055
          25 :    87.7245357068070
          26 :   -85.7888519988117
          27 :    81.0878789539253
          28 :   -77.2980086718671
          29 :    76.7369244173977
          30 :   -79.3896174086617
          31 :   -86.1251356107339
          32 :   -65.9860049475702

     Writing output data file ./pwscf.save/

     General routines

     Parallel routines

   This run was terminated on:  21:15:55  20May2022

   JOB DONE.