     Program PWSCF v.6.7MaX starts on 26Sep2022 at 14: 6: 8

     Reading input from cch2-ensemble.in
Warning: card &CELL ignored
Warning: card / ignored

     Current dimensions of program PWSCF are:
     Max number of different atomic species (ntypx) = 10
     Max number of k-points (npk) =  40000
     Max angular momentum in pseudopotentials (lmaxx) =  3
     file Pt.pbe-n-kjpaw_psl.1.0.0.UPF: wavefunction(s)  6S 5D renormalized
     file C.pbe-n-kjpaw_psl.1.0.0.UPF: wavefunction(s)  2S 2P renormalized
     file H.pbe-kjpaw_psl.1.0.0.UPF: wavefunction(s)  1S renormalized

     IMPORTANT: XC functional enforced from input :
     Exchange-correlation= BEEF-VDW
                           (   1   4  43  14   2   0   0)
     Any further DFT definition will be discarded
     Please, verify this is what you really want

     Subspace diagonalization in iterative solution of the eigenvalue problem:
     a serial algorithm will be used

     bravais-lattice index     =            0
     lattice parameter (alat)  =      16.0349  a.u.
     unit-cell volume          =   11202.5118 (a.u.)^3
     number of atoms/cell      =           40
     number of atomic types    =            3
     number of electrons       =       370.00
     number of Kohn-Sham states=          222
     kinetic-energy cutoff     =      60.0000  Ry
     charge density cutoff     =     240.0000  Ry
     scf convergence threshold =      1.0E-06
     mixing beta               =       0.7000
     number of iterations used =            8  local-TF  mixing
     Exchange-correlation= BEEF-VDW
                           (   1   4  43  14   2   0   0)

     celldm(1)=  16.034858  celldm(2)=   0.000000  celldm(3)=   0.000000
     celldm(4)=   0.000000  celldm(5)=   0.000000  celldm(6)=   0.000000

     crystal axes: (cart. coord. in units of alat)
               a(1) = (   1.000000   0.000000   0.000000 )
               a(2) = (   0.500000   0.866025   0.000000 )
               a(3) = (   0.000000   0.000000   3.137541 )

     reciprocal axes: (cart. coord. in units 2 pi/alat)
               b(1) = (  1.000000 -0.577350  0.000000 )
               b(2) = (  0.000000  1.154701  0.000000 )
               b(3) = (  0.000000  0.000000  0.318721 )

     PseudoPot. # 1 for Pt read from file:
     /users/bkreitz1/quantum-espresso/potentials/Pt.pbe-n-kjpaw_psl.1.0.0.UPF
     MD5 check sum: 04dc8a03c51ece93fc7b5889c2958091
     Pseudo is Projector augmented-wave + core cor, Zval = 10.0
     Generated using 'atomic' code by A. Dal Corso  v.6.7MaX
     Shape of augmentation charge: PSQ
     Using radial grid of 1277 points,  6 beta functions with:
                l(1) =   0
                l(2) =   0
                l(3) =   1
                l(4) =   1
                l(5) =   2
                l(6) =   2
     Q(r) pseudized with 0 coefficients

     PseudoPot. # 2 for C  read from file:
     /users/bkreitz1/quantum-espresso/potentials/C.pbe-n-kjpaw_psl.1.0.0.UPF
     MD5 check sum: a169b0ebad56f5ec0d79c4633f80bf22
     Pseudo is Projector augmented-wave + core cor, Zval =  4.0
     Generated using 'atomic' code by A. Dal Corso  v.6.7MaX
     Shape of augmentation charge: PSQ
     Using radial grid of 1073 points,  4 beta functions with:
                l(1) =   0
                l(2) =   0
                l(3) =   1
                l(4) =   1
     Q(r) pseudized with 0 coefficients

     PseudoPot. # 3 for H  read from file:
     /users/bkreitz1/quantum-espresso/potentials/H.pbe-kjpaw_psl.1.0.0.UPF
     MD5 check sum: ae98473e6dc62675f0d0baffdab24f65
     Pseudo is Projector augmented-wave, Zval =  1.0
     Generated using 'atomic' code by A. Dal Corso  v.6.7MaX
     Shape of augmentation charge: PSQ
     Using radial grid of  929 points,  2 beta functions with:
                l(1) =   0
                l(2) =   0
     Q(r) pseudized with 0 coefficients

     atomic species   valence    mass     pseudopotential
        Pt            10.00   195.08400     Pt( 1.00)
        C              4.00    12.01100     C ( 1.00)
        H              1.00     1.00800     H ( 1.00)

     No symmetry found

   Cartesian axes

     site n.     atom                  positions (alat units)
         1           Pt  tau(   1) = (   0.0000000   0.0000000   1.0017346  )
         2           Pt  tau(   2) = (   0.3333333   0.0000000   1.0017346  )
         3           Pt  tau(   3) = (   0.6666667   0.0000000   1.0017346  )
         4           Pt  tau(   4) = (   0.1666667   0.2886751   1.0017346  )
         5           Pt  tau(   5) = (   0.5000000   0.2886751   1.0017346  )
         6           Pt  tau(   6) = (   0.8333333   0.2886751   1.0017346  )
         7           Pt  tau(   7) = (   0.3333333   0.5773503   1.0017346  )
         8           Pt  tau(   8) = (   0.6666667   0.5773503   1.0017346  )
         9           Pt  tau(   9) = (   1.0000000   0.5773503   1.0017346  )
        10           Pt  tau(  10) = (   0.1666667   0.0962250   1.2739001  )
        11           Pt  tau(  11) = (   0.5000000   0.0962250   1.2739001  )
        12           Pt  tau(  12) = (   0.8333333   0.0962250   1.2739001  )
        13           Pt  tau(  13) = (   0.3333333   0.3849002   1.2739001  )
        14           Pt  tau(  14) = (   0.6666667   0.3849002   1.2739001  )
        15           Pt  tau(  15) = (   1.0000000   0.3849002   1.2739001  )
        16           Pt  tau(  16) = (   0.5000000   0.6735753   1.2739001  )
        17           Pt  tau(  17) = (   0.8333333   0.6735753   1.2739001  )
        18           Pt  tau(  18) = (   1.1666667   0.6735753   1.2739001  )
        19           Pt  tau(  19) = (  -0.0011516   0.1913504   1.5423362  )
        20           Pt  tau(  20) = (   0.3334423   0.1916236   1.5462122  )
        21           Pt  tau(  21) = (   0.6651033   0.1915533   1.5451994  )
        22           Pt  tau(  22) = (   0.1655732   0.4805046   1.5415548  )
        23           Pt  tau(  23) = (   0.4984718   0.4785944   1.5449175  )
        24           Pt  tau(  24) = (   0.8318095   0.4806881   1.5423383  )
        25           Pt  tau(  25) = (   0.3303520   0.7697806   1.5449262  )
        26           Pt  tau(  26) = (   0.6685848   0.7709133   1.5494686  )
        27           Pt  tau(  27) = (   0.9993467   0.7703141   1.5462202  )
        28           Pt  tau(  28) = (  -0.0077913  -0.0024906   1.8185327  )
        29           Pt  tau(  29) = (   0.3140510  -0.0111299   1.8317071  )
        30           Pt  tau(  30) = (   0.6700335  -0.0044857   1.8309445  )
        31           Pt  tau(  31) = (   0.1613181   0.2886207   1.8149883  )
        32           Pt  tau(  32) = (   0.4977407   0.2939442   1.8308782  )
        33           Pt  tau(  33) = (   0.8341355   0.2891556   1.8169685  )
        34           Pt  tau(  34) = (   0.3294928   0.5751878   1.8180557  )
        35           Pt  tau(  35) = (   0.6605904   0.5718789   1.8185346  )
        36           Pt  tau(  36) = (   0.9972695   0.5727745   1.8150070  )
        37           C   tau(  37) = (   0.5007460   0.0967887   1.9564127  )
        38           C   tau(  38) = (   0.3995350   0.0383873   2.0742513  )
        39           H   tau(  39) = (   0.3206234   0.1182536   2.1356344  )
        40           H   tau(  40) = (   0.9293346   0.7962594   2.1369772  )

     number of k points=    13  Marzari-Vanderbilt smearing, width (Ry)=  0.0200
                       cart. coord. in units 2pi/alat
        k(    1) = (   0.0000000   0.0000000   0.0000000), wk =   0.0800000
        k(    2) = (   0.0000000   0.2309401   0.0000000), wk =   0.1600000
        k(    3) = (   0.0000000   0.4618802   0.0000000), wk =   0.1600000
        k(    4) = (   0.2000000  -0.1154701   0.0000000), wk =   0.1600000
        k(    5) = (   0.2000000   0.1154701   0.0000000), wk =   0.1600000
        k(    6) = (   0.2000000   0.3464102   0.0000000), wk =   0.1600000
        k(    7) = (   0.2000000  -0.5773503   0.0000000), wk =   0.1600000
        k(    8) = (   0.2000000  -0.3464102   0.0000000), wk =   0.1600000
        k(    9) = (   0.4000000  -0.2309401   0.0000000), wk =   0.1600000
        k(   10) = (   0.4000000  -0.0000000   0.0000000), wk =   0.1600000
        k(   11) = (   0.4000000   0.2309401   0.0000000), wk =   0.1600000
        k(   12) = (   0.4000000  -0.6928203   0.0000000), wk =   0.1600000
        k(   13) = (   0.4000000  -0.4618802   0.0000000), wk =   0.1600000

     Check: negative core charge=   -0.000001

     Initial potential from superposition of free atoms

     starting charge  369.99379, renormalised to  370.00000

     negative rho (up, down):  1.160E-02 0.000E+00

     %%%%%%%%%%%%%%%%%%%%%%%%%%%%%%%%%%%%%%%%%%%%%%%%%%%%%%%%%%%%%%%%%%%%%%%%
     %                                                                      %
     % You are using vdW-DF, which was implemented by the Thonhauser group. %
     % Please cite the following two papers that made this development      %
     % possible and the two reviews that describe the various versions:     %
     %                                                                      %
     %   T. Thonhauser et al., PRL 115, 136402 (2015).                      %
     %   T. Thonhauser et al., PRB 76, 125112 (2007).                       %
     %   K. Berland et al., Rep. Prog. Phys. 78, 066501 (2015).             %
     %   D.C. Langreth et al., J. Phys.: Condens. Matter 21, 084203 (2009). %
     %                                                                      %
     %                                                                      %
     % If you are calculating the stress with vdW-DF, please also cite:     %
     %                                                                      %
     %   R. Sabatini et al., J. Phys.: Condens. Matter 24, 424209 (2012).   %
     %                                                                      %
     %%%%%%%%%%%%%%%%%%%%%%%%%%%%%%%%%%%%%%%%%%%%%%%%%%%%%%%%%%%%%%%%%%%%%%%%

     Starting wfcs are  334 randomized atomic wfcs
     Checking if some PAW data can be deallocated...

     Self-consistent Calculation

     iteration #  1     ecut=    60.00 Ry     beta= 0.70
     Davidson diagonalization with overlap
     ethr =  1.00E-02,  avg # of iterations =  2.0

     Threshold (ethr) on eigenvalues was too large:
     Diagonalizing with lowered threshold

     Davidson diagonalization with overlap
     ethr =  7.19E-04,  avg # of iterations =  3.2

[...]

     total energy              =  -27794.34623181 Ry
     estimated scf accuracy    <       2.93492953 Ry

[...]

     iteration #  6     ecut=    60.00 Ry     beta= 0.70
     Davidson diagonalization with overlap
     c_bands:  1 eigenvalues not converged
     c_bands:  1 eigenvalues not converged
     c_bands:  1 eigenvalues not converged
     ethr =  1.46E-05,  avg # of iterations = 13.1

[...]

     iteration #  9     ecut=    60.00 Ry     beta= 0.70
     Davidson diagonalization with overlap
     c_bands:  1 eigenvalues not converged
     ethr =  3.47E-07,  avg # of iterations =  3.4

[...]

     total energy              =  -27794.69906702 Ry
     estimated scf accuracy    <       0.00000243 Ry

     iteration # 18     ecut=    60.00 Ry     beta= 0.70
     Davidson diagonalization with overlap
     ethr =  6.57E-10,  avg # of iterations =  1.2

[...]

     End of self-consistent calculation

          k = 0.0000 0.0000 0.0000 ( 88025 PWs)   bands (ev):

   -13.2258  -8.3619  -6.7514  -5.5188  -5.1968  -5.0781  -4.4980  -4.3859
    -4.3804  -4.3705  -4.3570  -4.3281  -4.3190  -4.2378  -3.9417  -3.8380
    -3.8264  -3.8156  -3.8135  -3.7321  -3.6409  -3.4908  -3.3843  -3.3580
    -3.3474  -3.2338  -3.1954  -3.1573  -3.1551  -3.1312  -3.1256  -3.0589
    -3.0233  -3.0110  -2.9685  -2.9443  -2.9041  -2.8904  -2.8875  -2.8605
    -2.8429  -2.8348  -2.8142  -2.6949  -2.4154  -2.3892  -2.3318  -2.3100
    -2.2791  -2.2784  -2.2559  -2.2309  -2.2101  -2.1826  -2.0534  -2.0501
    -2.0055  -1.9994  -1.8587  -1.7742  -1.6458  -1.5649  -1.5407  -1.5020
    -1.4810  -1.4572  -1.4276  -1.3703  -1.3396  -1.3118  -1.2836  -1.2764
    -1.2715  -1.2691  -1.2390  -1.2386  -1.2262  -1.1938  -1.1863  -1.1779
    -1.1593  -1.1566  -1.1446  -1.0987  -1.0963  -1.0757  -1.0570  -1.0520
    -0.8908  -0.8906  -0.8642  -0.8352  -0.8309  -0.8240  -0.8042  -0.7985
    -0.7827  -0.7482  -0.7452  -0.6907  -0.6374  -0.6363  -0.5949  -0.5881
    -0.5880  -0.5375  -0.4958  -0.4949  -0.4698  -0.4481  -0.4334  -0.3925
    -0.3177  -0.0902  -0.0449  -0.0308   0.0175   0.0588   0.0653   0.0658
     0.0778   0.1103   0.1571   0.2080   0.2083   0.2617   0.2748   0.2946
     0.3002   0.3152   0.3320   0.4058   0.4497   0.5104   0.5440   0.5471
     0.5705   0.5857   0.6652   0.7243   0.7888   0.8048   0.8130   0.8506
     0.8627   0.8761   0.9236   0.9258   0.9704   0.9886   1.0397   1.0640
     1.0661   1.1049   1.1662   1.1797   1.2382   1.2434   1.2494   1.2559
     1.2586   1.2622   1.2700   1.2859   1.2888   1.3462   1.3547   1.3638
     1.3698   1.3749   1.4444   1.4520   1.4677   1.4773   1.4781   1.5253
     1.5280   1.5593   1.5844   1.6096   1.6126   1.6179   1.6321   1.6405
     1.6520   1.6960   1.7034   1.7124   1.7373   1.7595   1.7739   1.8662
     1.8946   2.0077   2.0092   2.0192   2.0614   2.0634   2.0773   2.1690
     2.5659   2.6157   2.8312   2.9287   2.9345   2.9538   3.4628   3.9409
     4.7807   5.2074   5.2283   5.2545   5.5895   5.6186   5.8862   6.4553
     6.7953   6.8257   6.8451   6.8752   6.8922   7.0058

[...]

          k = 0.4000-0.4619 0.0000 ( 87912 PWs)   bands (ev):

   -13.2243  -8.3379  -5.8501  -5.7884  -5.2868  -5.1579  -4.9978  -4.5973
    -4.5220  -4.1124  -4.0302  -3.9349  -3.8838  -3.8174  -3.7534  -3.7301
    -3.6424  -3.6351  -3.5940  -3.5301  -3.5157  -3.5004  -3.4789  -3.4456
    -3.4153  -3.3336  -3.3168  -3.3060  -3.2764  -3.2710  -3.1705  -3.1509
    -3.0508  -3.0175  -2.9832  -2.9504  -2.9075  -2.8691  -2.8466  -2.7668
    -2.7042  -2.6870  -2.5313  -2.5186  -2.4820  -2.4372  -2.4213  -2.3749
    -2.3189  -2.2837  -2.2347  -2.1827  -2.1675  -2.1382  -2.0903  -2.0386
    -2.0017  -1.9846  -1.9629  -1.9344  -1.9231  -1.8869  -1.8731  -1.8304
    -1.8132  -1.7793  -1.7598  -1.7299  -1.6973  -1.6272  -1.5864  -1.5624
    -1.5299  -1.4458  -1.4340  -1.4110  -1.3789  -1.3678  -1.3465  -1.3200
    -1.2700  -1.2495  -1.2121  -1.1676  -1.1575  -1.1116  -1.0573  -1.0327
    -1.0153  -1.0051  -0.9934  -0.9427  -0.8850  -0.8466  -0.8251  -0.8165
    -0.7822  -0.7594  -0.7353  -0.7240  -0.7039  -0.6894  -0.6616  -0.6561
    -0.6358  -0.5947  -0.5733  -0.5605  -0.5450  -0.5335  -0.5262  -0.5001
    -0.4749  -0.3703  -0.3376  -0.2815  -0.2481  -0.1827  -0.1409  -0.0892
    -0.0515  -0.0334   0.0002   0.0202   0.0349   0.0580   0.0765   0.1022
     0.1246   0.1664   0.1957   0.2692   0.3086   0.3189   0.3485   0.3629
     0.4271   0.4745   0.5275   0.5502   0.6222   0.6452   0.6611   0.6944
     0.7295   0.7408   0.7536   0.7654   0.8389   0.8653   0.8705   0.9069
     0.9508   0.9627   0.9916   1.0203   1.0606   1.1235   1.1582   1.2473
     1.2891   1.3205   1.4125   1.4308   1.4657   1.4960   1.5409   1.5654
     1.5968   1.6449   1.6916   1.7061   1.7501   1.7736   1.7953   1.8302
     1.8474   1.8869   1.9116   1.9248   1.9505   1.9662   1.9933   2.0051
     2.0612   2.0948   2.1275   2.1907   2.2160   2.2312   2.2753   2.2935
     2.3388   2.4491   2.6267   3.0048   3.1586   3.3670   3.4084   3.5812
     3.6549   3.6765   3.8036   4.0029   4.2018   4.3531   4.4465   4.5105
     4.7194   4.8655   4.9453   5.1002   5.1336   5.2536   5.2854   5.4214
     5.6526   5.7105   5.8654   6.1707   6.3769   6.4757

     the Fermi energy is     2.0045 ev

!    total energy              =  -27794.69906590 Ry

     total all-electron energy =  -1326796.992672 Ry
     estimated scf accuracy    <       0.00000082 Ry
     smearing contrib. (-TS)   =       0.00395837 Ry
     internal energy E=F+TS    =  -27794.70302426 Ry

     The total energy is F=E-TS. E is the sum of the following terms:
     one-electron contribution =  -26362.11184532 Ry
     hartree contribution      =   13484.29824821 Ry
     xc contribution           =    -901.14053360 Ry
     ewald contribution        =   11471.35242057 Ry
     one-center paw contrib.   =  -25487.10131412 Ry

     convergence has been achieved in  18 iterations

[...]

     Forces acting on atoms (cartesian axes, Ry/au):

     atom    1 type  1   force =     0.00015035    0.00121830   -0.00334783
     atom    2 type  1   force =    -0.00005068   -0.00003633   -0.00321805
     atom    3 type  1   force =     0.00067813   -0.00052090   -0.00292534
     atom    4 type  1   force =     0.00021547    0.00083877   -0.00442065
     atom    5 type  1   force =    -0.00010441    0.00084399   -0.00291167
     atom    6 type  1   force =     0.00046312    0.00026141   -0.00386949
     atom    7 type  1   force =    -0.00187331   -0.00110062   -0.00636715
     atom    8 type  1   force =     0.00114086   -0.00050363   -0.00332112
     atom    9 type  1   force =     0.00083626   -0.00026193   -0.00441781
     atom   10 type  1   force =     0.00045640   -0.00377318    0.00692959
     atom   11 type  1   force =    -0.00107377   -0.00062774    0.01034559
     atom   12 type  1   force =     0.00035517   -0.00257161    0.00332193
     atom   13 type  1   force =     0.00194485    0.00202161    0.00244439
     atom   14 type  1   force =    -0.00205107    0.00159021    0.00332756
     atom   15 type  1   force =    -0.00086806   -0.00050223    0.00091613
     atom   16 type  1   force =     0.00263906    0.00152213    0.00007104
     atom   17 type  1   force =    -0.00303447    0.00226338    0.00693476
     atom   18 type  1   force =     0.00272741    0.00065493    0.00243437
     atom   19 type  1   force =    -0.00004183   -0.00025973   -0.00032897
     atom   20 type  1   force =     0.00015059   -0.00011896   -0.00034412
     atom   21 type  1   force =    -0.00015631   -0.00005967   -0.00020911
     atom   22 type  1   force =    -0.00001999   -0.00002700   -0.00016215
     atom   23 type  1   force =    -0.00010952   -0.00016477   -0.00036766
     atom   24 type  1   force =    -0.00028469    0.00008017   -0.00030149
     atom   25 type  1   force =    -0.00016327   -0.00008385   -0.00035354
     atom   26 type  1   force =    -0.00029109   -0.00018855   -0.00048776
     atom   27 type  1   force =    -0.00007005    0.00017136   -0.00036007
     atom   28 type  1   force =    -0.00029207   -0.00009708   -0.00010443
     atom   29 type  1   force =     0.00046254    0.00005430    0.00039704
     atom   30 type  1   force =    -0.00048117    0.00001569   -0.00000543
     atom   31 type  1   force =    -0.00013264   -0.00022011   -0.00024880
     atom   32 type  1   force =    -0.00023004   -0.00044715    0.00001213
     atom   33 type  1   force =    -0.00018151   -0.00009789   -0.00025747
     atom   34 type  1   force =    -0.00016275   -0.00009721   -0.00026974
     atom   35 type  1   force =    -0.00020955   -0.00018614   -0.00011106
     atom   36 type  1   force =    -0.00026465    0.00001936   -0.00024648
     atom   37 type  2   force =    -0.00016580   -0.00078533    0.00004374
     atom   38 type  2   force =     0.00088827   -0.00400524    0.00667497
     atom   39 type  3   force =     0.00006363    0.00031537   -0.00057146
     atom   40 type  3   force =    -0.00085944    0.00486589   -0.00432436

     Total force =     0.010420     Total SCF correction =     0.003633
     SCF correction compared to forces is large: reduce conv_thr to get better values

[...]

     negative rho (up, down):  1.272E-02 0.000E+00

     negative rho (up, down):  1.272E-02 0.000E+00
 BEEFens 2000 ensemble energies
             -0.602688244790689E+02
             -0.359593526586306E+01
             -0.157573117108740E+02
              0.426582026437557E+02
             -0.219815545832811E+02
             -0.204355372364723E+02
             -0.349207170906964E+02
             -0.858868712885192E+02
             -0.463076122695864E+02
             -0.470548904908138E+02
             -0.366938800919497E+02
              0.221888609177002E+01
              0.404854578761169E+01
              0.766411622918935E+01
              0.263259500556794E+01
              0.471957113343627E+02
             -0.207685804922664E+02
             -0.229840481738028E+02
              0.191547832668014E+02
             -0.111688966911531E+03
              0.532732395896483E+02
             -0.288650201388215E+02
             -0.330589248136588E+01
             -0.113531092131347E+02
             -0.886799031940154E+01
             -0.462649017603215E+01
              0.877327469157700E+02
             -0.185298988808461E+02
             -0.896333318319046E+01
             -0.514897754842234E+02
              0.811549420298452E+02
             -0.187241125308977E+02
             -0.372462658747701E+02
              0.248223972288876E+02
             -0.282126398039901E+01
              0.162161341076988E+02
             -0.487282848505004E+01
              0.108156484165107E+02
              0.285771974909908E+02
             -0.102667960764628E+03
              0.554898671498869E+02
              0.141550637988974E+02
             -0.162136374569229E+01
             -0.359724924568495E+02
              0.122431049702208E+02
             -0.145368967060213E+02
              0.395251040580665E+02
              0.362677372548141E+02
             -0.307048537188602E+02
             -0.273170877778540E+02
             -0.326473389261072E+02
             -0.349734502679780E+02
              0.134764315273745E+02
             -0.487671769907565E+02
              0.114461703489868E+02
              0.619201678118465E+02
              0.630447111549091E+02
              0.353804479987107E+02
              0.153164531515644E+02
              0.268321912925280E+02
[...]
             -0.701316770091356E+02
             -0.945175242730897E+00
             -0.246983630839731E+01
             -0.875598997570751E+01
             -0.181276568034008E+01
             -0.648751926147299E+02
             -0.210309964295539E+02
              0.530335100774792E+01
              0.888569048109107E+01
              0.465578007560325E+02
             -0.394956246320769E+02
              0.654152572660016E+02
             -0.422789655452102E+02
              0.208508875739211E+02
              0.347515594159797E+02

 BEEF-vdW xc energy contributions
           1 :   -778.314708700016
           2 :    715.485157578576
           3 :   -606.471430416546
           4 :    477.797952658794
           5 :   -356.663699582694
           6 :    262.846622290156
           7 :   -204.113288859922
           8 :    176.102750973398
           9 :   -166.276910035416
          10 :    160.042419244377
          11 :   -146.537847602821
          12 :    121.900660869003
          13 :   -89.1548696644402
          14 :    55.3288778755799
          15 :   -27.4653658594880
          16 :    9.33756554474007
          17 :  -0.155961784461056
          18 :   -4.47401283084696
          19 :    10.0582723912496
          20 :   -20.5007658812081
          21 :    36.4165712721325
          22 :   -55.1376716436595
          23 :    72.2397880448719
          24 :   -83.7535474540273
          25 :    87.9732168234715
          26 :   -86.0702902274373
          27 :    81.3237645736078
          28 :   -77.4304234857520
          29 :    76.7477143989762
          30 :   -79.3026670719848
          31 :   -85.2673081259276
          32 :   -65.4509878981484

     Writing output data file ./pwscf.save/

     General routines

     Parallel routines

   This run was terminated on:  17:41:57  26Sep2022

   JOB DONE.