     Program PWSCF v.6.7MaX starts on  4Jan2023 at 10:13:58

     Reading input from cch2ch2-bi-ensemble.in
Warning: card &CELL ignored
Warning: card / ignored

     Current dimensions of program PWSCF are:
     Max number of different atomic species (ntypx) = 10
     Max number of k-points (npk) =  40000
     Max angular momentum in pseudopotentials (lmaxx) =  3
     file Pt.pbe-n-kjpaw_psl.1.0.0.UPF: wavefunction(s)  6S 5D renormalized
     file C.pbe-n-kjpaw_psl.1.0.0.UPF: wavefunction(s)  2S 2P renormalized
     file H.pbe-kjpaw_psl.1.0.0.UPF: wavefunction(s)  1S renormalized

     IMPORTANT: XC functional enforced from input :
     Exchange-correlation= BEEF-VDW
                           (   1   4  43  14   2   0   0)
     Any further DFT definition will be discarded
     Please, verify this is what you really want

     Subspace diagonalization in iterative solution of the eigenvalue problem:
     a serial algorithm will be used

     bravais-lattice index     =            0
     lattice parameter (alat)  =      16.0349  a.u.
     unit-cell volume          =   11372.0409 (a.u.)^3
     number of atoms/cell      =           43
     number of atomic types    =            3
     number of electrons       =       376.00
     number of Kohn-Sham states=          226
     kinetic-energy cutoff     =      60.0000  Ry
     charge density cutoff     =     240.0000  Ry
     scf convergence threshold =      1.0E-06
     mixing beta               =       0.7000
     number of iterations used =            8  local-TF  mixing
     Exchange-correlation= BEEF-VDW
                           (   1   4  43  14   2   0   0)

     celldm(1)=  16.034858  celldm(2)=   0.000000  celldm(3)=   0.000000
     celldm(4)=   0.000000  celldm(5)=   0.000000  celldm(6)=   0.000000

     crystal axes: (cart. coord. in units of alat)
               a(1) = (   1.000000   0.000000   0.000000 )
               a(2) = (   0.500000   0.866025   0.000000 )
               a(3) = (   0.000000   0.000000   3.185022 )

     reciprocal axes: (cart. coord. in units 2 pi/alat)
               b(1) = (  1.000000 -0.577350  0.000000 )
               b(2) = (  0.000000  1.154701  0.000000 )
               b(3) = (  0.000000  0.000000  0.313970 )

     PseudoPot. # 1 for Pt read from file:
     /users/bkreitz1/quantum-espresso/potentials/Pt.pbe-n-kjpaw_psl.1.0.0.UPF
     MD5 check sum: 04dc8a03c51ece93fc7b5889c2958091
     Pseudo is Projector augmented-wave + core cor, Zval = 10.0
     Generated using 'atomic' code by A. Dal Corso  v.6.7MaX
     Shape of augmentation charge: PSQ
     Using radial grid of 1277 points,  6 beta functions with:
                l(1) =   0
                l(2) =   0
                l(3) =   1
                l(4) =   1
                l(5) =   2
                l(6) =   2
     Q(r) pseudized with 0 coefficients

     PseudoPot. # 2 for C  read from file:
     /users/bkreitz1/quantum-espresso/potentials/C.pbe-n-kjpaw_psl.1.0.0.UPF
     MD5 check sum: a169b0ebad56f5ec0d79c4633f80bf22
     Pseudo is Projector augmented-wave + core cor, Zval =  4.0
     Generated using 'atomic' code by A. Dal Corso  v.6.7MaX
     Shape of augmentation charge: PSQ
     Using radial grid of 1073 points,  4 beta functions with:
                l(1) =   0
                l(2) =   0
                l(3) =   1
                l(4) =   1
     Q(r) pseudized with 0 coefficients

     PseudoPot. # 3 for H  read from file:
     /users/bkreitz1/quantum-espresso/potentials/H.pbe-kjpaw_psl.1.0.0.UPF
     MD5 check sum: ae98473e6dc62675f0d0baffdab24f65
     Pseudo is Projector augmented-wave, Zval =  1.0
     Generated using 'atomic' code by A. Dal Corso  v.6.7MaX
     Shape of augmentation charge: PSQ
     Using radial grid of  929 points,  2 beta functions with:
                l(1) =   0
                l(2) =   0
     Q(r) pseudized with 0 coefficients

     atomic species   valence    mass     pseudopotential
        Pt            10.00   195.08400     Pt( 1.00)
        C              4.00    12.01100     C ( 1.00)
        H              1.00     1.00800     H ( 1.00)

     No symmetry found

   Cartesian axes

     site n.     atom                  positions (alat units)
         1           Pt  tau(   1) = (   0.0000000   0.0000000   1.0017346  )
         2           Pt  tau(   2) = (   0.3333333   0.0000000   1.0017346  )
         3           Pt  tau(   3) = (   0.6666667   0.0000000   1.0017346  )
         4           Pt  tau(   4) = (   0.1666667   0.2886751   1.0017346  )
         5           Pt  tau(   5) = (   0.5000000   0.2886751   1.0017346  )
         6           Pt  tau(   6) = (   0.8333333   0.2886751   1.0017346  )
         7           Pt  tau(   7) = (   0.3333333   0.5773503   1.0017346  )
         8           Pt  tau(   8) = (   0.6666667   0.5773503   1.0017346  )
         9           Pt  tau(   9) = (   1.0000000   0.5773503   1.0017346  )
        10           Pt  tau(  10) = (   0.1666667   0.0962250   1.2739001  )
        11           Pt  tau(  11) = (   0.5000000   0.0962250   1.2739001  )
        12           Pt  tau(  12) = (   0.8333333   0.0962250   1.2739001  )
        13           Pt  tau(  13) = (   0.3333333   0.3849002   1.2739001  )
        14           Pt  tau(  14) = (   0.6666667   0.3849002   1.2739001  )
        15           Pt  tau(  15) = (   1.0000000   0.3849002   1.2739001  )
        16           Pt  tau(  16) = (   0.5000000   0.6735753   1.2739001  )
        17           Pt  tau(  17) = (   0.8333333   0.6735753   1.2739001  )
        18           Pt  tau(  18) = (   1.1666667   0.6735753   1.2739001  )
        19           Pt  tau(  19) = (   0.0016749   0.1925914   1.5417682  )
        20           Pt  tau(  20) = (   0.3374762   0.1948552   1.5481529  )
        21           Pt  tau(  21) = (   0.6643007   0.1909232   1.5464380  )
        22           Pt  tau(  22) = (   0.1626884   0.4822499   1.5480050  )
        23           Pt  tau(  23) = (   0.4974753   0.4798588   1.5464187  )
        24           Pt  tau(  24) = (   0.8331466   0.4810261   1.5429292  )
        25           Pt  tau(  25) = (   0.3326409   0.7694184   1.5429122  )
        26           Pt  tau(  26) = (   0.6676201   0.7712203   1.5417525  )
        27           Pt  tau(  27) = (   0.9989781   0.7658136   1.5480094  )
        28           Pt  tau(  28) = (  -0.0015218  -0.0008401   1.8158027  )
        29           Pt  tau(  29) = (   0.3334633   0.0044498   1.8178015  )
        30           Pt  tau(  30) = (   0.6617885  -0.0073775   1.8190340  )
        31           Pt  tau(  31) = (   0.1705420   0.2866101   1.8178027  )
        32           Pt  tau(  32) = (   0.5036682   0.2908704   1.8509511  )
        33           Pt  tau(  33) = (   0.8335755   0.2788282   1.8159153  )
        34           Pt  tau(  34) = (   0.3244489   0.5768838   1.8190253  )
        35           Pt  tau(  35) = (   0.6582271   0.5825462   1.8158289  )
        36           Pt  tau(  36) = (   0.9901058   0.5716818   1.8552550  )
        37           C   tau(  37) = (   0.8017897   0.4629916   1.9592453  )
        38           C   tau(  38) = (   0.7291546   0.4212573   2.1159100  )
        39           C   tau(  39) = (   0.5709868   0.3298814   2.0887159  )
        40           H   tau(  40) = (   0.8116774   0.3486499   2.1837507  )
        41           H   tau(  41) = (   0.7074364   0.5291676   2.1834938  )
        42           H   tau(  42) = (   0.5769102   0.2114103   2.1377805  )
        43           H   tau(  43) = (   0.4713001   0.3942170   2.1389034  )

     number of k points=    13  Marzari-Vanderbilt smearing, width (Ry)=  0.0200
                       cart. coord. in units 2pi/alat
        k(    1) = (   0.0000000   0.0000000   0.0000000), wk =   0.0800000
        k(    2) = (   0.0000000   0.2309401   0.0000000), wk =   0.1600000
        k(    3) = (   0.0000000   0.4618802   0.0000000), wk =   0.1600000
        k(    4) = (   0.2000000  -0.1154701   0.0000000), wk =   0.1600000
        k(    5) = (   0.2000000   0.1154701   0.0000000), wk =   0.1600000
        k(    6) = (   0.2000000   0.3464102   0.0000000), wk =   0.1600000
        k(    7) = (   0.2000000  -0.5773503   0.0000000), wk =   0.1600000
        k(    8) = (   0.2000000  -0.3464102   0.0000000), wk =   0.1600000
        k(    9) = (   0.4000000  -0.2309401   0.0000000), wk =   0.1600000
        k(   10) = (   0.4000000  -0.0000000   0.0000000), wk =   0.1600000
        k(   11) = (   0.4000000   0.2309401   0.0000000), wk =   0.1600000
        k(   12) = (   0.4000000  -0.6928203   0.0000000), wk =   0.1600000
        k(   13) = (   0.4000000  -0.4618802   0.0000000), wk =   0.1600000

     Check: negative core charge=   -0.000002

     Initial potential from superposition of free atoms

     starting charge  375.99373, renormalised to  376.00000

     negative rho (up, down):  1.130E-02 0.000E+00

     %%%%%%%%%%%%%%%%%%%%%%%%%%%%%%%%%%%%%%%%%%%%%%%%%%%%%%%%%%%%%%%%%%%%%%%%
     %                                                                      %
     % You are using vdW-DF, which was implemented by the Thonhauser group. %
     % Please cite the following two papers that made this development      %
     % possible and the two reviews that describe the various versions:     %
     %                                                                      %
     %   T. Thonhauser et al., PRL 115, 136402 (2015).                      %
     %   T. Thonhauser et al., PRB 76, 125112 (2007).                       %
     %   K. Berland et al., Rep. Prog. Phys. 78, 066501 (2015).             %
     %   D.C. Langreth et al., J. Phys.: Condens. Matter 21, 084203 (2009). %
     %                                                                      %
     %                                                                      %
     % If you are calculating the stress with vdW-DF, please also cite:     %
     %                                                                      %
     %   R. Sabatini et al., J. Phys.: Condens. Matter 24, 424209 (2012).   %
     %                                                                      %
     %%%%%%%%%%%%%%%%%%%%%%%%%%%%%%%%%%%%%%%%%%%%%%%%%%%%%%%%%%%%%%%%%%%%%%%%

     Starting wfcs are  340 randomized atomic wfcs
     Checking if some PAW data can be deallocated...

     Self-consistent Calculation

     iteration #  1     ecut=    60.00 Ry     beta= 0.70
     Davidson diagonalization with overlap
     ethr =  1.00E-02,  avg # of iterations =  2.8

     Threshold (ethr) on eigenvalues was too large:
     Diagonalizing with lowered threshold

     Davidson diagonalization with overlap
     ethr =  8.21E-04,  avg # of iterations =  2.6

[...]

     total energy              =  -27815.81085069 Ry
     estimated scf accuracy    <       3.39269714 Ry

[...]

     iteration #  4     ecut=    60.00 Ry     beta= 0.70
     Davidson diagonalization with overlap
     c_bands:  1 eigenvalues not converged
     ethr =  1.59E-04,  avg # of iterations =  8.8

[...]

     iteration #  8     ecut=    60.00 Ry     beta= 0.70
     Davidson diagonalization with overlap
     c_bands:  1 eigenvalues not converged
     ethr =  1.94E-06,  avg # of iterations = 10.5

[...]

     total energy              =  -27816.12737663 Ry
     estimated scf accuracy    <       0.00000283 Ry

     iteration # 19     ecut=    60.00 Ry     beta= 0.70
     Davidson diagonalization with overlap
     ethr =  7.52E-10,  avg # of iterations =  2.0

[...]

     End of self-consistent calculation

          k = 0.0000 0.0000 0.0000 ( 89201 PWs)   bands (ev):

   -13.3249 -10.1868  -8.2192  -6.6488  -5.3650  -5.1989  -5.0367  -4.3967
    -4.3322  -4.3206  -4.2819  -4.2740  -4.2600  -4.2384  -4.2003  -3.9689
    -3.9005  -3.7357  -3.7209  -3.7127  -3.7033  -3.6317  -3.4579  -3.3015
    -3.2978  -3.2408  -3.2337  -3.1513  -3.1203  -3.0628  -3.0496  -3.0430
    -3.0316  -2.9862  -2.9687  -2.8962  -2.8956  -2.8589  -2.8520  -2.8158
    -2.7898  -2.7862  -2.7619  -2.7599  -2.7326  -2.6932  -2.3780  -2.3459
    -2.2826  -2.2663  -2.2221  -2.2087  -2.1963  -2.1619  -2.1167  -2.1100
    -2.0497  -1.9875  -1.9608  -1.9290  -1.8636  -1.6660  -1.6207  -1.6165
    -1.4892  -1.4539  -1.4337  -1.4041  -1.4016  -1.3499  -1.3320  -1.3098
    -1.2606  -1.2319  -1.2073  -1.1998  -1.1834  -1.1769  -1.1714  -1.1606
    -1.1381  -1.1196  -1.1052  -1.0927  -1.0864  -1.0672  -1.0422  -1.0259
    -0.9889  -0.9563  -0.9507  -0.8631  -0.8416  -0.7995  -0.7806  -0.7773
    -0.7465  -0.7127  -0.6990  -0.6785  -0.6713  -0.6526  -0.5998  -0.5741
    -0.5662  -0.5319  -0.5286  -0.5284  -0.4620  -0.4407  -0.3982  -0.3747
    -0.3426  -0.3019  -0.2582  -0.1989  -0.0643  -0.0281   0.0252   0.0463
     0.0643   0.1222   0.1280   0.2014   0.2553   0.2611   0.2964   0.3023
     0.3160   0.3281   0.3532   0.3741   0.3805   0.4066   0.4967   0.5245
     0.5784   0.5959   0.6227   0.6291   0.6725   0.7310   0.8305   0.8410
     0.8540   0.8706   0.8954   0.9256   0.9422   0.9465   1.0246   1.0499
     1.0738   1.1172   1.1365   1.1574   1.1906   1.1985   1.2561   1.2701
     1.2776   1.2849   1.3089   1.3140   1.3223   1.3376   1.3441   1.3495
     1.3777   1.3882   1.4019   1.4186   1.4499   1.4917   1.5057   1.5105
     1.5286   1.5515   1.5585   1.5989   1.6302   1.6390   1.6458   1.6661
     1.6726   1.6863   1.6951   1.7240   1.7485   1.7765   1.7881   1.7988
     1.8458   1.8487   1.9778   1.9905   2.0467   2.0507   2.0954   2.1177
     2.1249   2.1448   2.3630   2.6481   2.6790   2.7674   2.9365   2.9999
     3.0009   3.9529   4.1283   4.1439   4.9271   5.2132   5.2764   5.5027
     5.8118   5.9968   6.0598   6.7184   6.8241   6.9054   6.9486   6.9526
     7.0034   7.0681

[...]

          k = 0.4000-0.4619 0.0000 ( 89276 PWs)   bands (ev):

   -13.3240 -10.1849  -8.1906  -5.7712  -5.6812  -5.2135  -5.1113  -4.9859
    -4.5167  -4.4205  -4.0915  -3.9859  -3.8990  -3.8209  -3.7939  -3.7109
    -3.6543  -3.5952  -3.5694  -3.5162  -3.4835  -3.4507  -3.4337  -3.4150
    -3.3901  -3.3660  -3.3129  -3.2417  -3.2280  -3.2144  -3.1840  -3.1580
    -3.1230  -3.0152  -2.9773  -2.9486  -2.9143  -2.8419  -2.8233  -2.7896
    -2.7686  -2.7457  -2.6192  -2.5963  -2.5416  -2.4414  -2.4116  -2.3830
    -2.3317  -2.3195  -2.2544  -2.2061  -2.1883  -2.1022  -2.0879  -2.0705
    -2.0160  -1.9633  -1.9457  -1.9303  -1.8939  -1.8667  -1.8436  -1.8211
    -1.7828  -1.7590  -1.7456  -1.7217  -1.6994  -1.6567  -1.6178  -1.6012
    -1.5413  -1.5119  -1.4705  -1.4499  -1.3895  -1.3762  -1.3504  -1.3245
    -1.2993  -1.2836  -1.2438  -1.1950  -1.1831  -1.1498  -1.1101  -1.0757
    -1.0511  -1.0144  -0.9846  -0.9480  -0.9373  -0.8963  -0.8863  -0.8567
    -0.8115  -0.7727  -0.7407  -0.6975  -0.6759  -0.6606  -0.6496  -0.6342
    -0.6100  -0.5908  -0.5808  -0.5467  -0.5205  -0.4922  -0.4819  -0.4757
    -0.4609  -0.4493  -0.4102  -0.3723  -0.3279  -0.2709  -0.2326  -0.1317
    -0.1088  -0.0558  -0.0266   0.0121   0.0199   0.0305   0.0651   0.0980
     0.1379   0.1669   0.1938   0.2262   0.2477   0.2814   0.3131   0.3411
     0.3813   0.3961   0.4684   0.5030   0.5253   0.5771   0.6358   0.6787
     0.7112   0.7417   0.7551   0.7798   0.8006   0.8137   0.8471   0.8762
     0.9110   0.9512   0.9686   1.0012   1.0145   1.0652   1.0849   1.1284
     1.1720   1.2394   1.2776   1.3219   1.4054   1.4621   1.4873   1.5174
     1.5394   1.6094   1.6202   1.6875   1.7399   1.7470   1.7816   1.8027
     1.8161   1.8373   1.8725   1.9044   1.9609   1.9808   1.9891   2.0017
     2.0334   2.0526   2.0619   2.1222   2.1685   2.2353   2.2595   2.2710
     2.2867   2.3257   2.3461   2.3889   2.5363   2.9585   3.0339   3.2253
     3.3348   3.4466   3.5323   3.7077   3.7622   3.9090   4.0213   4.2174
     4.2917   4.4759   4.5776   4.6243   4.9402   4.9637   5.1268   5.1929
     5.2800   5.3535   5.4548   5.5650   5.7811   5.8171   6.0337   6.4145
     6.4935   6.5622

     the Fermi energy is     2.0683 ev

!    total energy              =  -27816.12737666 Ry

     total all-electron energy =  -1326876.185072 Ry
     estimated scf accuracy    <       0.00000030 Ry
     smearing contrib. (-TS)   =       0.00335005 Ry
     internal energy E=F+TS    =  -27816.13072670 Ry

     The total energy is F=E-TS. E is the sum of the following terms:
     one-electron contribution =  -27185.41521830 Ry
     hartree contribution      =   13899.13971318 Ry
     xc contribution           =    -907.43165218 Ry
     ewald contribution        =   11871.20525502 Ry
     one-center paw contrib.   =  -25493.62882442 Ry

     convergence has been achieved in  19 iterations

[...]

     Forces acting on atoms (cartesian axes, Ry/au):

     atom    1 type  1   force =    -0.00166842   -0.00097650   -0.00688929
     atom    2 type  1   force =     0.00044759   -0.00066168   -0.00335708
     atom    3 type  1   force =     0.00041002   -0.00003582   -0.00435422
     atom    4 type  1   force =    -0.00034188    0.00070498   -0.00336092
     atom    5 type  1   force =     0.00155099    0.00088450   -0.00497379
     atom    6 type  1   force =    -0.00006080   -0.00053806   -0.00412112
     atom    7 type  1   force =     0.00017635    0.00037598   -0.00436071
     atom    8 type  1   force =    -0.00048636    0.00022213   -0.00413334
     atom    9 type  1   force =     0.00026157    0.00015298   -0.00386294
     atom   10 type  1   force =     0.00241209    0.00139945   -0.00714751
     atom   11 type  1   force =    -0.00232601    0.00022118    0.00740628
     atom   12 type  1   force =     0.00064236   -0.00003988    0.00122948
     atom   13 type  1   force =    -0.00097937   -0.00212819    0.00739633
     atom   14 type  1   force =    -0.00295904   -0.00171622    0.00669349
     atom   15 type  1   force =     0.00296141    0.00043118    0.00480299
     atom   16 type  1   force =     0.00028896    0.00058161    0.00121174
     atom   17 type  1   force =     0.00185154    0.00236281    0.00478930
     atom   18 type  1   force =    -0.00172069   -0.00098141    0.00967899
     atom   19 type  1   force =    -0.00023292   -0.00015245   -0.00009429
     atom   20 type  1   force =    -0.00022991   -0.00014121    0.00019120
     atom   21 type  1   force =    -0.00025103   -0.00017970    0.00030250
     atom   22 type  1   force =     0.00003062   -0.00009817    0.00041675
     atom   23 type  1   force =    -0.00027828   -0.00010602    0.00027001
     atom   24 type  1   force =    -0.00000270    0.00000051   -0.00000119
     atom   25 type  1   force =    -0.00019377   -0.00011812   -0.00024846
     atom   26 type  1   force =    -0.00025089   -0.00013134   -0.00009592
     atom   27 type  1   force =    -0.00007992    0.00007768    0.00041346
     atom   28 type  1   force =    -0.00023006   -0.00012712    0.00055561
     atom   29 type  1   force =    -0.00034745   -0.00022756    0.00056346
     atom   30 type  1   force =     0.00008842   -0.00010407    0.00035510
     atom   31 type  1   force =    -0.00036043   -0.00017951    0.00057630
     atom   32 type  1   force =    -0.00058030    0.00008124    0.00084863
     atom   33 type  1   force =     0.00001098   -0.00029741   -0.00024518
     atom   34 type  1   force =    -0.00003194    0.00010982    0.00038055
     atom   35 type  1   force =    -0.00027508    0.00016051   -0.00023647
     atom   36 type  1   force =    -0.00036858   -0.00021353    0.00032245
     atom   37 type  2   force =     0.00102789    0.00057920    0.00042974
     atom   38 type  2   force =     0.00220562    0.00108295   -0.00077594
     atom   39 type  2   force =    -0.00442786    0.00176684    0.00078756
     atom   40 type  3   force =     0.00013739   -0.00029838    0.00031947
     atom   41 type  3   force =    -0.00014346    0.00019078    0.00024636
     atom   42 type  3   force =     0.00096692   -0.00041075    0.00032326
     atom   43 type  3   force =     0.00335643   -0.00152324   -0.00225266

     Total force =     0.007496     Total SCF correction =     0.002195
     SCF correction compared to forces is large: reduce conv_thr to get better values

[...]

     negative rho (up, down):  1.261E-02 0.000E+00

     negative rho (up, down):  1.261E-02 0.000E+00
 BEEFens 2000 ensemble energies
             -0.607443942281920E+02
             -0.362249261559322E+01
             -0.158496707939183E+02
              0.429988821563149E+02
             -0.221330606498820E+02
             -0.205378387580496E+02
             -0.352783018300989E+02
             -0.866109591890555E+02
             -0.465175408785967E+02
             -0.473046423101838E+02
             -0.369741273802891E+02
              0.226920245035062E+01
              0.407710808158168E+01
              0.760222661780332E+01
              0.266735016657256E+01
              0.475457246415948E+02
             -0.208985816099818E+02
             -0.230211757001066E+02
              0.193454482851389E+02
             -0.112483643888849E+03
              0.536896839071519E+02
             -0.290024160591911E+02
             -0.336705455792011E+01
             -0.114139895354782E+02
             -0.882461267434019E+01
             -0.464118376622255E+01
              0.883583948455824E+02
             -0.187552460652083E+02
             -0.900881868458396E+01
             -0.519080032655284E+02
              0.816110257188200E+02
             -0.187168281302672E+02
             -0.375556710069654E+02
              0.249309956616212E+02
             -0.285117821859001E+01
              0.164592864833284E+02
             -0.484344466170074E+01
              0.107923889884497E+02
              0.288883780364939E+02
             -0.103368304066195E+03
              0.558968618802498E+02
              0.142471744095783E+02
             -0.174503579625485E+01
             -0.361726066978701E+02
              0.123380137294387E+02
             -0.147029280518317E+02
              0.399172680464899E+02
              0.365087407292318E+02
             -0.308158535007224E+02
             -0.275553820346717E+02
             -0.328929211467467E+02
             -0.352498914583773E+02
              0.136586998929398E+02
             -0.491460504140748E+02
              0.115797569306981E+02
              0.623521156188873E+02
              0.636248137703595E+02
              0.356054558892365E+02
              0.154174311816450E+02
              0.270879620273464E+02
[...]
             -0.707002267565854E+02
             -0.878277357333673E+00
             -0.246062875557682E+01
             -0.884121315371931E+01
             -0.179697435477112E+01
             -0.653445253809255E+02
             -0.210674041737961E+02
              0.540702399363320E+01
              0.900689560577115E+01
              0.469471978426720E+02
             -0.398318683385415E+02
              0.657466593277624E+02
             -0.425687632155261E+02
              0.210741686307971E+02
              0.350835040335700E+02

 BEEF-vdW xc energy contributions
           1 :   -783.492173959230
           2 :    719.775258984120
           3 :   -609.388240169933
           4 :    479.342427573861
           5 :   -357.168951907775
           6 :    262.768585105171
           7 :   -203.853287776620
           8 :    175.891657266239
           9 :   -166.150154251308
          10 :    159.905378769974
          11 :   -146.278583214919
          12 :    121.486642609879
          13 :   -88.6683296443331
          14 :    54.9220835988265
          15 :   -27.2715744533857
          16 :    9.39531506568562
          17 :  -0.388372468965372
          18 :   -4.21646643218548
          19 :    9.91739723159174
          20 :   -20.5363419651287
          21 :    36.5786124146910
          22 :   -55.3005786173976
          23 :    72.2768194282720
          24 :   -83.6102861338792
          25 :    87.6999092936601
          26 :   -85.7932755298860
          27 :    81.1752599656919
          28 :   -77.4804486559472
          29 :    76.9707049447666
          30 :   -79.5903766616972
          31 :   -85.9910017685783
          32 :   -65.9140236942412

     Writing output data file ./pwscf.save/

     General routines

     Parallel routines

   This run was terminated on:  14: 8:59   4Jan2023

   JOB DONE.