     Program PWSCF v.6.7MaX starts on  3Jan2023 at 22:26:45

     Reading input from cch2-ensemble.in
Warning: card &CELL ignored
Warning: card / ignored

     Current dimensions of program PWSCF are:
     Max number of different atomic species (ntypx) = 10
     Max number of k-points (npk) =  40000
     Max angular momentum in pseudopotentials (lmaxx) =  3
     file Pt.pbe-n-kjpaw_psl.1.0.0.UPF: wavefunction(s)  6S 5D renormalized
     file C.pbe-n-kjpaw_psl.1.0.0.UPF: wavefunction(s)  2S 2P renormalized
     file H.pbe-kjpaw_psl.1.0.0.UPF: wavefunction(s)  1S renormalized

     IMPORTANT: XC functional enforced from input :
     Exchange-correlation= BEEF-VDW
                           (   1   4  43  14   2   0   0)
     Any further DFT definition will be discarded
     Please, verify this is what you really want

     Subspace diagonalization in iterative solution of the eigenvalue problem:
     a serial algorithm will be used

     bravais-lattice index     =            0
     lattice parameter (alat)  =      16.0349  a.u.
     unit-cell volume          =   11202.5118 (a.u.)^3
     number of atoms/cell      =           40
     number of atomic types    =            3
     number of electrons       =       370.00
     number of Kohn-Sham states=          222
     kinetic-energy cutoff     =      60.0000  Ry
     charge density cutoff     =     240.0000  Ry
     scf convergence threshold =      1.0E-06
     mixing beta               =       0.7000
     number of iterations used =            8  local-TF  mixing
     Exchange-correlation= BEEF-VDW
                           (   1   4  43  14   2   0   0)

     celldm(1)=  16.034858  celldm(2)=   0.000000  celldm(3)=   0.000000
     celldm(4)=   0.000000  celldm(5)=   0.000000  celldm(6)=   0.000000

     crystal axes: (cart. coord. in units of alat)
               a(1) = (   1.000000   0.000000   0.000000 )
               a(2) = (   0.500000   0.866025   0.000000 )
               a(3) = (   0.000000   0.000000   3.137541 )

     reciprocal axes: (cart. coord. in units 2 pi/alat)
               b(1) = (  1.000000 -0.577350  0.000000 )
               b(2) = (  0.000000  1.154701  0.000000 )
               b(3) = (  0.000000  0.000000  0.318721 )

     PseudoPot. # 1 for Pt read from file:
     /users/bkreitz1/quantum-espresso/potentials/Pt.pbe-n-kjpaw_psl.1.0.0.UPF
     MD5 check sum: 04dc8a03c51ece93fc7b5889c2958091
     Pseudo is Projector augmented-wave + core cor, Zval = 10.0
     Generated using 'atomic' code by A. Dal Corso  v.6.7MaX
     Shape of augmentation charge: PSQ
     Using radial grid of 1277 points,  6 beta functions with:
                l(1) =   0
                l(2) =   0
                l(3) =   1
                l(4) =   1
                l(5) =   2
                l(6) =   2
     Q(r) pseudized with 0 coefficients

     PseudoPot. # 2 for C  read from file:
     /users/bkreitz1/quantum-espresso/potentials/C.pbe-n-kjpaw_psl.1.0.0.UPF
     MD5 check sum: a169b0ebad56f5ec0d79c4633f80bf22
     Pseudo is Projector augmented-wave + core cor, Zval =  4.0
     Generated using 'atomic' code by A. Dal Corso  v.6.7MaX
     Shape of augmentation charge: PSQ
     Using radial grid of 1073 points,  4 beta functions with:
                l(1) =   0
                l(2) =   0
                l(3) =   1
                l(4) =   1
     Q(r) pseudized with 0 coefficients

     PseudoPot. # 3 for H  read from file:
     /users/bkreitz1/quantum-espresso/potentials/H.pbe-kjpaw_psl.1.0.0.UPF
     MD5 check sum: ae98473e6dc62675f0d0baffdab24f65
     Pseudo is Projector augmented-wave, Zval =  1.0
     Generated using 'atomic' code by A. Dal Corso  v.6.7MaX
     Shape of augmentation charge: PSQ
     Using radial grid of  929 points,  2 beta functions with:
                l(1) =   0
                l(2) =   0
     Q(r) pseudized with 0 coefficients

     atomic species   valence    mass     pseudopotential
        Pt            10.00   195.08400     Pt( 1.00)
        C              4.00    12.01100     C ( 1.00)
        H              1.00     1.00800     H ( 1.00)

     No symmetry found

   Cartesian axes

     site n.     atom                  positions (alat units)
         1           Pt  tau(   1) = (   0.0000000   0.0000000   1.0017346  )
         2           Pt  tau(   2) = (   0.3333333   0.0000000   1.0017346  )
         3           Pt  tau(   3) = (   0.6666667   0.0000000   1.0017346  )
         4           Pt  tau(   4) = (   0.1666667   0.2886751   1.0017346  )
         5           Pt  tau(   5) = (   0.5000000   0.2886751   1.0017346  )
         6           Pt  tau(   6) = (   0.8333333   0.2886751   1.0017346  )
         7           Pt  tau(   7) = (   0.3333333   0.5773503   1.0017346  )
         8           Pt  tau(   8) = (   0.6666667   0.5773503   1.0017346  )
         9           Pt  tau(   9) = (   1.0000000   0.5773503   1.0017346  )
        10           Pt  tau(  10) = (   0.1666667   0.0962250   1.2739001  )
        11           Pt  tau(  11) = (   0.5000000   0.0962250   1.2739001  )
        12           Pt  tau(  12) = (   0.8333333   0.0962250   1.2739001  )
        13           Pt  tau(  13) = (   0.3333333   0.3849002   1.2739001  )
        14           Pt  tau(  14) = (   0.6666667   0.3849002   1.2739001  )
        15           Pt  tau(  15) = (   1.0000000   0.3849002   1.2739001  )
        16           Pt  tau(  16) = (   0.5000000   0.6735753   1.2739001  )
        17           Pt  tau(  17) = (   0.8333333   0.6735753   1.2739001  )
        18           Pt  tau(  18) = (   1.1666667   0.6735753   1.2739001  )
        19           Pt  tau(  19) = (  -0.0008560   0.1921882   1.5410324  )
        20           Pt  tau(  20) = (   0.3343252   0.1929262   1.5469652  )
        21           Pt  tau(  21) = (   0.6632466   0.1933919   1.5483155  )
        22           Pt  tau(  22) = (   0.1660919   0.4808854   1.5424986  )
        23           Pt  tau(  23) = (   0.4990260   0.4774690   1.5486944  )
        24           Pt  tau(  24) = (   0.8324912   0.4807834   1.5424356  )
        25           Pt  tau(  25) = (   0.3327118   0.7695589   1.5413718  )
        26           Pt  tau(  26) = (   0.6656688   0.7692552   1.5412191  )
        27           Pt  tau(  27) = (   0.9993162   0.7694123   1.5424565  )
        28           Pt  tau(  28) = (  -0.0010442   0.0003628   1.8172472  )
        29           Pt  tau(  29) = (   0.3304998  -0.0022231   1.8158668  )
        30           Pt  tau(  30) = (   0.6674174  -0.0025426   1.8166918  )
        31           Pt  tau(  31) = (   0.1620599   0.2884864   1.8153514  )
        32           Pt  tau(  32) = (   0.5000561   0.2906691   1.8384861  )
        33           Pt  tau(  33) = (   0.8362066   0.2888218   1.8159695  )
        34           Pt  tau(  34) = (   0.3300912   0.5814712   1.8168532  )
        35           Pt  tau(  35) = (   0.6678475   0.5814159   1.8164055  )
        36           Pt  tau(  36) = (   0.9988473   0.5777022   1.8173461  )
        37           C   tau(  37) = (   0.4959137   0.3005778   2.0542747  )
        38           C   tau(  38) = (   0.4993560   0.3105458   2.2074785  )
        39           H   tau(  39) = (   0.4696631   0.4201490   2.2663510  )
        40           H   tau(  40) = (   0.5313656   0.2089032   2.2795211  )

     number of k points=    13  Marzari-Vanderbilt smearing, width (Ry)=  0.0200
                       cart. coord. in units 2pi/alat
        k(    1) = (   0.0000000   0.0000000   0.0000000), wk =   0.0800000
        k(    2) = (   0.0000000   0.2309401   0.0000000), wk =   0.1600000
        k(    3) = (   0.0000000   0.4618802   0.0000000), wk =   0.1600000
        k(    4) = (   0.2000000  -0.1154701   0.0000000), wk =   0.1600000
        k(    5) = (   0.2000000   0.1154701   0.0000000), wk =   0.1600000
        k(    6) = (   0.2000000   0.3464102   0.0000000), wk =   0.1600000
        k(    7) = (   0.2000000  -0.5773503   0.0000000), wk =   0.1600000
        k(    8) = (   0.2000000  -0.3464102   0.0000000), wk =   0.1600000
        k(    9) = (   0.4000000  -0.2309401   0.0000000), wk =   0.1600000
        k(   10) = (   0.4000000  -0.0000000   0.0000000), wk =   0.1600000
        k(   11) = (   0.4000000   0.2309401   0.0000000), wk =   0.1600000
        k(   12) = (   0.4000000  -0.6928203   0.0000000), wk =   0.1600000
        k(   13) = (   0.4000000  -0.4618802   0.0000000), wk =   0.1600000

     Check: negative core charge=   -0.000002

     Initial potential from superposition of free atoms

     starting charge  369.99379, renormalised to  370.00000

     negative rho (up, down):  1.057E-02 0.000E+00

     %%%%%%%%%%%%%%%%%%%%%%%%%%%%%%%%%%%%%%%%%%%%%%%%%%%%%%%%%%%%%%%%%%%%%%%%
     %                                                                      %
     % You are using vdW-DF, which was implemented by the Thonhauser group. %
     % Please cite the following two papers that made this development      %
     % possible and the two reviews that describe the various versions:     %
     %                                                                      %
     %   T. Thonhauser et al., PRL 115, 136402 (2015).                      %
     %   T. Thonhauser et al., PRB 76, 125112 (2007).                       %
     %   K. Berland et al., Rep. Prog. Phys. 78, 066501 (2015).             %
     %   D.C. Langreth et al., J. Phys.: Condens. Matter 21, 084203 (2009). %
     %                                                                      %
     %                                                                      %
     % If you are calculating the stress with vdW-DF, please also cite:     %
     %                                                                      %
     %   R. Sabatini et al., J. Phys.: Condens. Matter 24, 424209 (2012).   %
     %                                                                      %
     %%%%%%%%%%%%%%%%%%%%%%%%%%%%%%%%%%%%%%%%%%%%%%%%%%%%%%%%%%%%%%%%%%%%%%%%

     Starting wfcs are  334 randomized atomic wfcs
     Checking if some PAW data can be deallocated...

     Self-consistent Calculation

     iteration #  1     ecut=    60.00 Ry     beta= 0.70
     Davidson diagonalization with overlap
     ethr =  1.00E-02,  avg # of iterations =  2.0

     Threshold (ethr) on eigenvalues was too large:
     Diagonalizing with lowered threshold

     Davidson diagonalization with overlap
     ethr =  9.57E-04,  avg # of iterations =  2.3

[...]

     total energy              =  -27794.11081993 Ry
     estimated scf accuracy    <       3.76394844 Ry

[...]

     iteration #  7     ecut=    60.00 Ry     beta= 0.70
     Davidson diagonalization with overlap
     c_bands:  1 eigenvalues not converged
     c_bands:  1 eigenvalues not converged
     c_bands:  1 eigenvalues not converged
     c_bands:  1 eigenvalues not converged
     c_bands:  1 eigenvalues not converged
     c_bands:  2 eigenvalues not converged
     c_bands:  1 eigenvalues not converged
     ethr =  3.76E-06,  avg # of iterations = 15.6

[...]

     iteration # 12     ecut=    60.00 Ry     beta= 0.70
     Davidson diagonalization with overlap
     c_bands:  1 eigenvalues not converged
     ethr =  2.08E-07,  avg # of iterations =  3.4

[...]

     total energy              =  -27794.59969348 Ry
     estimated scf accuracy    <       0.00000163 Ry

     iteration # 20     ecut=    60.00 Ry     beta= 0.70
     Davidson diagonalization with overlap
     ethr =  4.40E-10,  avg # of iterations =  2.8

[...]

     End of self-consistent calculation

          k = 0.0000 0.0000 0.0000 ( 88025 PWs)   bands (ev):

   -12.9383  -7.6243  -6.6797  -5.4322  -4.9332  -4.7893  -4.3660  -4.2881
    -4.2862  -4.2846  -4.2750  -4.2522  -4.2492  -4.2033  -3.7318  -3.7282
    -3.7235  -3.7230  -3.7216  -3.6823  -3.2879  -3.2834  -3.2654  -3.2600
    -3.2562  -3.2458  -3.0545  -3.0474  -3.0420  -3.0379  -3.0353  -2.9910
    -2.8905  -2.8410  -2.8349  -2.8286  -2.8257  -2.8163  -2.8156  -2.8063
    -2.7874  -2.7827  -2.7333  -2.7240  -2.5506  -2.4037  -2.1852  -2.1832
    -2.1687  -2.1647  -2.1361  -2.1200  -2.1173  -2.0918  -1.9556  -1.9372
    -1.8736  -1.8586  -1.7973  -1.7139  -1.4247  -1.3932  -1.3896  -1.3644
    -1.2942  -1.2854  -1.2664  -1.1953  -1.1935  -1.1835  -1.1763  -1.1737
    -1.1716  -1.1515  -1.1308  -1.1213  -1.1142  -1.0917  -1.0910  -1.0619
    -1.0486  -1.0210  -0.9660  -0.9554  -0.9523  -0.9210  -0.8608  -0.8327
    -0.8271  -0.8229  -0.7932  -0.7771  -0.7722  -0.7384  -0.7288  -0.6845
    -0.6680  -0.6643  -0.5947  -0.5933  -0.5266  -0.5261  -0.4862  -0.4857
    -0.4388  -0.4192  -0.3738  -0.3300  -0.3246  -0.3167  -0.1606  -0.0879
     0.0009   0.0531   0.0800   0.1265   0.1594   0.1715   0.1726   0.1812
     0.2152   0.2185   0.2333   0.2978   0.3364   0.3458   0.4093   0.4148
     0.4505   0.4559   0.5324   0.5395   0.5430   0.6466   0.6556   0.6629
     0.6678   0.6792   0.8144   0.8346   0.9043   0.9071   0.9116   0.9375
     0.9717   0.9833   1.1210   1.1219   1.1536   1.1767   1.1779   1.2101
     1.2365   1.2418   1.3208   1.3265   1.3361   1.3412   1.3584   1.3622
     1.3660   1.3848   1.3865   1.4301   1.4332   1.4384   1.4511   1.4697
     1.4974   1.5391   1.5640   1.5686   1.5698   1.6001   1.6054   1.6061
     1.6330   1.6480   1.6632   1.6645   1.7226   1.7231   1.7421   1.7596
     1.7646   1.7725   1.7966   1.8425   1.8471   1.8515   1.8744   1.8754
     2.0367   2.0451   2.1390   2.1429   2.1792   2.1808   2.1821   2.2044
     2.3597   2.8438   2.9516   3.0440   3.0484   3.0599   3.0798   3.6807
     4.2887   5.3299   5.3421   5.3514   5.3625   5.4159   5.9949   6.0565
     6.3752   6.7500   6.9426   6.9482   6.9794   6.9876

[...]

          k = 0.4000-0.4619 0.0000 ( 87912 PWs)   bands (ev):

   -12.9382  -7.6157  -5.7359  -5.7235  -5.1555  -4.9212  -4.7912  -4.4987
    -4.4202  -3.9727  -3.9359  -3.8238  -3.7806  -3.6768  -3.6604  -3.5831
    -3.5662  -3.4921  -3.4763  -3.4364  -3.4157  -3.4032  -3.3992  -3.3850
    -3.2595  -3.2356  -3.2246  -3.2048  -3.1729  -3.1420  -3.0606  -2.9983
    -2.9507  -2.8922  -2.8639  -2.8355  -2.8263  -2.7874  -2.7472  -2.7112
    -2.6053  -2.5894  -2.5539  -2.4599  -2.3943  -2.3858  -2.2737  -2.2233
    -2.2036  -2.1296  -2.0858  -2.0571  -2.0279  -1.9914  -1.9594  -1.9292
    -1.9088  -1.9018  -1.8787  -1.8024  -1.7877  -1.7623  -1.7401  -1.7312
    -1.6937  -1.6753  -1.6523  -1.6004  -1.5499  -1.4933  -1.4638  -1.4139
    -1.3837  -1.3326  -1.3215  -1.2863  -1.2647  -1.2472  -1.2239  -1.1953
    -1.1625  -1.1379  -1.0893  -1.0611  -1.0445  -1.0183  -0.9839  -0.9222
    -0.9017  -0.8761  -0.8393  -0.7895  -0.7520  -0.7311  -0.7103  -0.6814
    -0.6630  -0.6425  -0.6283  -0.6085  -0.5877  -0.5825  -0.5553  -0.5454
    -0.4978  -0.4849  -0.4719  -0.4627  -0.4458  -0.4341  -0.4249  -0.3955
    -0.3664  -0.3275  -0.2056  -0.1116  -0.0819  -0.0626  -0.0101   0.0385
     0.0441   0.0822   0.1057   0.1475   0.1614   0.1799   0.2047   0.2378
     0.2708   0.3055   0.3388   0.3584   0.4158   0.4351   0.4655   0.5350
     0.5811   0.6365   0.6646   0.7143   0.7336   0.7654   0.7883   0.8307
     0.8498   0.8594   0.8844   0.9059   0.9305   0.9878   1.0035   1.0566
     1.0782   1.0920   1.1051   1.1256   1.1437   1.2177   1.2725   1.3327
     1.3871   1.4554   1.4979   1.5437   1.5571   1.6025   1.6702   1.6806
     1.7085   1.7817   1.8220   1.8473   1.8720   1.8954   1.9068   1.9170
     1.9487   1.9771   2.0489   2.0516   2.0567   2.0876   2.1108   2.1156
     2.1274   2.1898   2.2735   2.2994   2.3309   2.3418   2.3499   2.3952
     2.4185   2.5129   2.6104   2.9892   3.1348   3.4793   3.4942   3.6489
     3.7406   3.8393   3.8579   3.9860   4.0920   4.4678   4.5193   4.5995
     4.8962   4.9546   5.0443   5.0951   5.1678   5.3078   5.3871   5.4371
     5.6401   5.8040   5.9319   6.1026   6.3308   6.4983

     the Fermi energy is     2.1109 ev

!    total energy              =  -27794.59969290 Ry

     total all-electron energy =  -1326796.893299 Ry
     estimated scf accuracy    <       0.00000085 Ry
     smearing contrib. (-TS)   =       0.00106173 Ry
     internal energy E=F+TS    =  -27794.60075463 Ry

     The total energy is F=E-TS. E is the sum of the following terms:
     one-electron contribution =  -26029.82017871 Ry
     hartree contribution      =   13319.63897029 Ry
     xc contribution           =    -900.91610396 Ry
     ewald contribution        =   11303.58458511 Ry
     one-center paw contrib.   =  -25487.08802736 Ry

     convergence has been achieved in  20 iterations

[...]

     Forces acting on atoms (cartesian axes, Ry/au):

     atom    1 type  1   force =     0.00046642    0.00040348   -0.00960602
     atom    2 type  1   force =    -0.00094682    0.00007658   -0.00346608
     atom    3 type  1   force =     0.00103829   -0.00003756   -0.00319599
     atom    4 type  1   force =    -0.00022519   -0.00094802   -0.00336334
     atom    5 type  1   force =     0.00010597    0.00004530   -0.00334283
     atom    6 type  1   force =     0.00035913   -0.00093329   -0.00310717
     atom    7 type  1   force =     0.00049701    0.00077289   -0.00294319
     atom    8 type  1   force =    -0.00042043    0.00070151   -0.00302089
     atom    9 type  1   force =     0.00015966    0.00007669   -0.00315262
     atom   10 type  1   force =    -0.00081017   -0.00064791   -0.00082792
     atom   11 type  1   force =     0.00005461    0.00229155    0.00948401
     atom   12 type  1   force =    -0.00042327   -0.00047278    0.00039192
     atom   13 type  1   force =     0.00207060   -0.00116050    0.00949358
     atom   14 type  1   force =    -0.00283843   -0.00156396    0.00983858
     atom   15 type  1   force =    -0.00022359    0.00017247    0.00127933
     atom   16 type  1   force =    -0.00056558   -0.00021988    0.00078407
     atom   17 type  1   force =    -0.00023607   -0.00029150    0.00154121
     atom   18 type  1   force =    -0.00024747   -0.00025169    0.00182726
     atom   19 type  1   force =    -0.00009227   -0.00008570   -0.00016653
     atom   20 type  1   force =     0.00003126    0.00007240   -0.00048437
     atom   21 type  1   force =    -0.00042027   -0.00008888   -0.00013921
     atom   22 type  1   force =     0.00017145    0.00028377    0.00004055
     atom   23 type  1   force =    -0.00007599   -0.00020880    0.00001881
     atom   24 type  1   force =    -0.00002521    0.00021630    0.00005007
     atom   25 type  1   force =    -0.00023688    0.00008394    0.00000536
     atom   26 type  1   force =     0.00047099    0.00036850   -0.00008386
     atom   27 type  1   force =     0.00021242    0.00048007    0.00018584
     atom   28 type  1   force =     0.00004554   -0.00008104    0.00023463
     atom   29 type  1   force =    -0.00009709    0.00039569    0.00012022
     atom   30 type  1   force =     0.00019531    0.00026140   -0.00005876
     atom   31 type  1   force =     0.00049281    0.00001442    0.00036826
     atom   32 type  1   force =    -0.00011723   -0.00000417    0.00017993
     atom   33 type  1   force =    -0.00009579   -0.00008046    0.00050894
     atom   34 type  1   force =     0.00018926    0.00034930    0.00020856
     atom   35 type  1   force =     0.00001661    0.00025832    0.00023389
     atom   36 type  1   force =     0.00029472    0.00000676    0.00024535
     atom   37 type  2   force =     0.00328612   -0.00053231    0.00110719
     atom   38 type  2   force =     0.00036809   -0.00543900    0.00383487
     atom   39 type  3   force =    -0.00049679    0.00053997    0.00003468
     atom   40 type  3   force =    -0.00193176    0.00517616   -0.00505832

     Total force =     0.010786     Total SCF correction =     0.003018
     SCF correction compared to forces is large: reduce conv_thr to get better values

[...]

     negative rho (up, down):  1.173E-02 0.000E+00

     negative rho (up, down):  1.173E-02 0.000E+00
 BEEFens 2000 ensemble energies
             -0.602712439038064E+02
             -0.358866840314280E+01
             -0.157431854586847E+02
              0.426550964230640E+02
             -0.219898816821161E+02
             -0.204246133882711E+02
             -0.349351736637774E+02
             -0.858787939335422E+02
             -0.462816742002316E+02
             -0.470304116523646E+02
             -0.366919698031875E+02
              0.224453589693584E+01
              0.404229374382751E+01
              0.765026454625144E+01
              0.262651304487008E+01
              0.471940052552067E+02
             -0.207515606908123E+02
             -0.229455424340768E+02
              0.191547181927351E+02
             -0.111685691122726E+03
              0.532692772772656E+02
             -0.288577535614623E+02
             -0.330018732224385E+01
             -0.113549254840559E+02
             -0.884427561254768E+01
             -0.459741864253220E+01
              0.877242418109621E+02
             -0.185656721610139E+02
             -0.894329034099849E+01
             -0.514835870474285E+02
              0.811113872623396E+02
             -0.186883579365945E+02
             -0.372293623772912E+02
              0.247983919878349E+02
             -0.282465994253033E+01
              0.162310670452111E+02
             -0.486936318914962E+01
              0.108069838856616E+02
              0.286078450642064E+02
             -0.102631860079727E+03
              0.554953021853012E+02
              0.141610840938613E+02
             -0.165145271496164E+01
             -0.359475405213119E+02
              0.122469311138784E+02
             -0.145643837212049E+02
              0.395197268206448E+02
              0.362620262966841E+02
             -0.306865337537974E+02
             -0.273052236115756E+02
             -0.326463891127396E+02
             -0.349867213999571E+02
              0.135140030738959E+02
             -0.487466360447784E+02
              0.114543996469213E+02
              0.619255024955679E+02
              0.630591252120696E+02
              0.353881824057698E+02
              0.153009647606875E+02
              0.268507902595159E+02
[...]
             -0.701363319528452E+02
             -0.911081492768290E+00
             -0.248298422516666E+01
             -0.875226856192683E+01
             -0.182826518332683E+01
             -0.648690106347960E+02
             -0.209962128454203E+02
              0.531612139298964E+01
              0.891572255745919E+01
              0.465604741143110E+02
             -0.394953413660251E+02
              0.653850959304614E+02
             -0.422720315542374E+02
              0.208691838862572E+02
              0.347502663071188E+02

 BEEF-vdW xc energy contributions
           1 :   -778.065208608794
           2 :    715.047985675698
           3 :   -605.844149587463
           4 :    477.133878104236
           5 :   -356.143147208849
           6 :    262.580690411235
           7 :   -204.114594754460
           8 :    176.310366186516
           9 :   -166.604491042235
          10 :    160.415818399993
          11 :   -146.911012337008
          12 :    122.250752579383
          13 :   -89.4667825192101
          14 :    55.5846009972615
          15 :   -27.6477835497130
          16 :    9.44245600152612
          17 :  -0.198923790098434
          18 :   -4.46402745497915
          19 :    10.0551233230560
          20 :   -20.4974554473968
          21 :    36.4294650895046
          22 :   -55.1943945166984
          23 :    72.3590787874316
          24 :   -83.9312387430246
          25 :    88.1831902431065
          26 :   -86.2753198787083
          27 :    81.4881187668410
          28 :   -77.5326347673928
          29 :    76.7902505076014
          30 :   -79.3115177350008
          31 :   -85.2453489548758
          32 :   -65.3836001609181

     Writing output data file ./pwscf.save/

     General routines

     Parallel routines

   This run was terminated on:   2: 8:28   4Jan2023

   JOB DONE.