     Program PWSCF v.6.7MaX starts on 26Sep2022 at 14:12: 7

     Reading input from cch3-ensemble.in
Warning: card &CELL ignored
Warning: card / ignored

     Current dimensions of program PWSCF are:
     Max number of different atomic species (ntypx) = 10
     Max number of k-points (npk) =  40000
     Max angular momentum in pseudopotentials (lmaxx) =  3
     file Pt.pbe-n-kjpaw_psl.1.0.0.UPF: wavefunction(s)  6S 5D renormalized
     file C.pbe-n-kjpaw_psl.1.0.0.UPF: wavefunction(s)  2S 2P renormalized
     file H.pbe-kjpaw_psl.1.0.0.UPF: wavefunction(s)  1S renormalized

     IMPORTANT: XC functional enforced from input :
     Exchange-correlation= BEEF-VDW
                           (   1   4  43  14   2   0   0)
     Any further DFT definition will be discarded
     Please, verify this is what you really want

     Subspace diagonalization in iterative solution of the eigenvalue problem:
     a serial algorithm will be used

     bravais-lattice index     =            0
     lattice parameter (alat)  =      16.0349  a.u.
     unit-cell volume          =   11385.2601 (a.u.)^3
     number of atoms/cell      =           41
     number of atomic types    =            3
     number of electrons       =       371.00
     number of Kohn-Sham states=          223
     kinetic-energy cutoff     =      60.0000  Ry
     charge density cutoff     =     240.0000  Ry
     scf convergence threshold =      1.0E-06
     mixing beta               =       0.7000
     number of iterations used =            8  local-TF  mixing
     Exchange-correlation= BEEF-VDW
                           (   1   4  43  14   2   0   0)

     celldm(1)=  16.034858  celldm(2)=   0.000000  celldm(3)=   0.000000
     celldm(4)=   0.000000  celldm(5)=   0.000000  celldm(6)=   0.000000

     crystal axes: (cart. coord. in units of alat)
               a(1) = (   1.000000   0.000000   0.000000 )
               a(2) = (   0.500000   0.866025   0.000000 )
               a(3) = (   0.000000   0.000000   3.188724 )

     reciprocal axes: (cart. coord. in units 2 pi/alat)
               b(1) = (  1.000000 -0.577350  0.000000 )
               b(2) = (  0.000000  1.154701  0.000000 )
               b(3) = (  0.000000  0.000000  0.313605 )

     PseudoPot. # 1 for Pt read from file:
     /users/bkreitz1/quantum-espresso/potentials/Pt.pbe-n-kjpaw_psl.1.0.0.UPF
     MD5 check sum: 04dc8a03c51ece93fc7b5889c2958091
     Pseudo is Projector augmented-wave + core cor, Zval = 10.0
     Generated using 'atomic' code by A. Dal Corso  v.6.7MaX
     Shape of augmentation charge: PSQ
     Using radial grid of 1277 points,  6 beta functions with:
                l(1) =   0
                l(2) =   0
                l(3) =   1
                l(4) =   1
                l(5) =   2
                l(6) =   2
     Q(r) pseudized with 0 coefficients

     PseudoPot. # 2 for C  read from file:
     /users/bkreitz1/quantum-espresso/potentials/C.pbe-n-kjpaw_psl.1.0.0.UPF
     MD5 check sum: a169b0ebad56f5ec0d79c4633f80bf22
     Pseudo is Projector augmented-wave + core cor, Zval =  4.0
     Generated using 'atomic' code by A. Dal Corso  v.6.7MaX
     Shape of augmentation charge: PSQ
     Using radial grid of 1073 points,  4 beta functions with:
                l(1) =   0
                l(2) =   0
                l(3) =   1
                l(4) =   1
     Q(r) pseudized with 0 coefficients

     PseudoPot. # 3 for H  read from file:
     /users/bkreitz1/quantum-espresso/potentials/H.pbe-kjpaw_psl.1.0.0.UPF
     MD5 check sum: ae98473e6dc62675f0d0baffdab24f65
     Pseudo is Projector augmented-wave, Zval =  1.0
     Generated using 'atomic' code by A. Dal Corso  v.6.7MaX
     Shape of augmentation charge: PSQ
     Using radial grid of  929 points,  2 beta functions with:
                l(1) =   0
                l(2) =   0
     Q(r) pseudized with 0 coefficients

     atomic species   valence    mass     pseudopotential
        Pt            10.00   195.08400     Pt( 1.00)
        C              4.00    12.01100     C ( 1.00)
        H              1.00     1.00800     H ( 1.00)

     No symmetry found

   Cartesian axes

     site n.     atom                  positions (alat units)
         1           Pt  tau(   1) = (   0.0000000   0.0000000   1.0017346  )
         2           Pt  tau(   2) = (   0.3333333   0.0000000   1.0017346  )
         3           Pt  tau(   3) = (   0.6666667   0.0000000   1.0017346  )
         4           Pt  tau(   4) = (   0.1666667   0.2886751   1.0017346  )
         5           Pt  tau(   5) = (   0.5000000   0.2886751   1.0017346  )
         6           Pt  tau(   6) = (   0.8333333   0.2886751   1.0017346  )
         7           Pt  tau(   7) = (   0.3333333   0.5773503   1.0017346  )
         8           Pt  tau(   8) = (   0.6666667   0.5773503   1.0017346  )
         9           Pt  tau(   9) = (   1.0000000   0.5773503   1.0017346  )
        10           Pt  tau(  10) = (   0.1666667   0.0962250   1.2739001  )
        11           Pt  tau(  11) = (   0.5000000   0.0962250   1.2739001  )
        12           Pt  tau(  12) = (   0.8333333   0.0962250   1.2739001  )
        13           Pt  tau(  13) = (   0.3333333   0.3849002   1.2739001  )
        14           Pt  tau(  14) = (   0.6666667   0.3849002   1.2739001  )
        15           Pt  tau(  15) = (   1.0000000   0.3849002   1.2739001  )
        16           Pt  tau(  16) = (   0.5000000   0.6735753   1.2739001  )
        17           Pt  tau(  17) = (   0.8333333   0.6735753   1.2739001  )
        18           Pt  tau(  18) = (   1.1666667   0.6735753   1.2739001  )
        19           Pt  tau(  19) = (   0.0000515   0.1921600   1.5426528  )
        20           Pt  tau(  20) = (   0.3340962   0.1920966   1.5458508  )
        21           Pt  tau(  21) = (   0.6660101   0.1920754   1.5460004  )
        22           Pt  tau(  22) = (   0.1670281   0.4813482   1.5426456  )
        23           Pt  tau(  23) = (   0.5000502   0.4793535   1.5455743  )
        24           Pt  tau(  24) = (   0.8331100   0.4813248   1.5426600  )
        25           Pt  tau(  25) = (   0.3317873   0.7707612   1.5456083  )
        26           Pt  tau(  26) = (   0.6681307   0.7706536   1.5454248  )
        27           Pt  tau(  27) = (   1.0000755   0.7706483   1.5458725  )
        28           Pt  tau(  28) = (  -0.0003288  -0.0000075   1.8178646  )
        29           Pt  tau(  29) = (   0.3295112  -0.0021479   1.8328777  )
        30           Pt  tau(  30) = (   0.6692942  -0.0017348   1.8337905  )
        31           Pt  tau(  31) = (   0.1636237   0.2904235   1.8171299  )
        32           Pt  tau(  32) = (   0.4997493   0.2919681   1.8336517  )
        33           Pt  tau(  33) = (   0.8361581   0.2903467   1.8171907  )
        34           Pt  tau(  34) = (   0.3332417   0.5773714   1.8178999  )
        35           Pt  tau(  35) = (   0.6664707   0.5771471   1.8178379  )
        36           Pt  tau(  36) = (   0.9999640   0.5739059   1.8171300  )
        37           C   tau(  37) = (   0.4983420   0.0954749   1.9670043  )
        38           C   tau(  38) = (   0.4977412   0.0954718   2.1433378  )
        39           H   tau(  39) = (   0.9979795   0.8404609   2.1877792  )
        40           H   tau(  40) = (   0.6024169   0.1561242   2.1880565  )
        41           H   tau(  41) = (   0.3927477   0.1558942   2.1886927  )

     number of k points=    13  Marzari-Vanderbilt smearing, width (Ry)=  0.0200
                       cart. coord. in units 2pi/alat
        k(    1) = (   0.0000000   0.0000000   0.0000000), wk =   0.0800000
        k(    2) = (   0.0000000   0.2309401   0.0000000), wk =   0.1600000
        k(    3) = (   0.0000000   0.4618802   0.0000000), wk =   0.1600000
        k(    4) = (   0.2000000  -0.1154701   0.0000000), wk =   0.1600000
        k(    5) = (   0.2000000   0.1154701   0.0000000), wk =   0.1600000
        k(    6) = (   0.2000000   0.3464102   0.0000000), wk =   0.1600000
        k(    7) = (   0.2000000  -0.5773503   0.0000000), wk =   0.1600000
        k(    8) = (   0.2000000  -0.3464102   0.0000000), wk =   0.1600000
        k(    9) = (   0.4000000  -0.2309401   0.0000000), wk =   0.1600000
        k(   10) = (   0.4000000  -0.0000000   0.0000000), wk =   0.1600000
        k(   11) = (   0.4000000   0.2309401   0.0000000), wk =   0.1600000
        k(   12) = (   0.4000000  -0.6928203   0.0000000), wk =   0.1600000
        k(   13) = (   0.4000000  -0.4618802   0.0000000), wk =   0.1600000

     Check: negative core charge=   -0.000001

     Initial potential from superposition of free atoms

     starting charge  370.99378, renormalised to  371.00000

     negative rho (up, down):  1.131E-02 0.000E+00

     %%%%%%%%%%%%%%%%%%%%%%%%%%%%%%%%%%%%%%%%%%%%%%%%%%%%%%%%%%%%%%%%%%%%%%%%
     %                                                                      %
     % You are using vdW-DF, which was implemented by the Thonhauser group. %
     % Please cite the following two papers that made this development      %
     % possible and the two reviews that describe the various versions:     %
     %                                                                      %
     %   T. Thonhauser et al., PRL 115, 136402 (2015).                      %
     %   T. Thonhauser et al., PRB 76, 125112 (2007).                       %
     %   K. Berland et al., Rep. Prog. Phys. 78, 066501 (2015).             %
     %   D.C. Langreth et al., J. Phys.: Condens. Matter 21, 084203 (2009). %
     %                                                                      %
     %                                                                      %
     % If you are calculating the stress with vdW-DF, please also cite:     %
     %                                                                      %
     %   R. Sabatini et al., J. Phys.: Condens. Matter 24, 424209 (2012).   %
     %                                                                      %
     %%%%%%%%%%%%%%%%%%%%%%%%%%%%%%%%%%%%%%%%%%%%%%%%%%%%%%%%%%%%%%%%%%%%%%%%

     Starting wfcs are  335 randomized atomic wfcs
     Checking if some PAW data can be deallocated...

     Self-consistent Calculation

     iteration #  1     ecut=    60.00 Ry     beta= 0.70
     Davidson diagonalization with overlap
     ethr =  1.00E-02,  avg # of iterations =  2.1

     Threshold (ethr) on eigenvalues was too large:
     Diagonalizing with lowered threshold

     Davidson diagonalization with overlap
     ethr =  6.53E-04,  avg # of iterations =  3.4

[...]

     total energy              =  -27795.68640815 Ry
     estimated scf accuracy    <       2.70360955 Ry

[...]

     iteration #  6     ecut=    60.00 Ry     beta= 0.70
     Davidson diagonalization with overlap
     c_bands:  2 eigenvalues not converged
     ethr =  1.35E-05,  avg # of iterations =  9.2

[...]

     iteration #  8     ecut=    60.00 Ry     beta= 0.70
     Davidson diagonalization with overlap
     c_bands:  1 eigenvalues not converged
     c_bands:  1 eigenvalues not converged
     ethr =  1.52E-06,  avg # of iterations = 10.5

[...]

     total energy              =  -27795.97487984 Ry
     estimated scf accuracy    <       0.00000542 Ry

     iteration # 19     ecut=    60.00 Ry     beta= 0.70
     Davidson diagonalization with overlap
     ethr =  1.24E-09,  avg # of iterations =  2.0

[...]

     End of self-consistent calculation

          k = 0.0000 0.0000 0.0000 ( 89311 PWs)   bands (ev):

   -12.7164  -8.8789  -6.8103  -5.5310  -4.7254  -4.7146  -4.7097  -4.4617
    -4.4270  -4.4247  -4.4243  -4.3896  -4.3414  -4.3392  -4.1468  -3.8823
    -3.8760  -3.8753  -3.8391  -3.8377  -3.7969  -3.4632  -3.4604  -3.4231
    -3.4137  -3.4121  -3.2943  -3.2119  -3.2115  -3.1997  -3.1859  -3.1845
    -3.0957  -3.0545  -3.0536  -3.0017  -3.0003  -2.9862  -2.9413  -2.9205
    -2.9204  -2.9092  -2.8781  -2.8779  -2.5468  -2.3926  -2.3873  -2.3438
    -2.3427  -2.3344  -2.3163  -2.2744  -2.2734  -2.2683  -2.1122  -2.1117
    -2.0605  -2.0558  -2.0533  -1.8750  -1.8717  -1.6214  -1.6186  -1.5690
    -1.5415  -1.5404  -1.4936  -1.4683  -1.3777  -1.3760  -1.3570  -1.3409
    -1.3400  -1.3395  -1.3327  -1.3007  -1.2903  -1.2901  -1.2439  -1.2434
    -1.2405  -1.2280  -1.2279  -1.1573  -1.1536  -1.1477  -1.1278  -1.1248
    -1.1214  -0.9403  -0.9237  -0.9230  -0.8914  -0.8912  -0.8907  -0.8780
    -0.8777  -0.8170  -0.8165  -0.8019  -0.7129  -0.7129  -0.6739  -0.6695
    -0.6482  -0.5604  -0.5591  -0.5333  -0.5282  -0.5256  -0.5126  -0.4033
    -0.3966  -0.3680  -0.0731  -0.0710  -0.0486  -0.0036  -0.0024   0.0100
     0.0141   0.0155   0.0256   0.1381   0.1386   0.1981   0.1982   0.1995
     0.2372   0.2382   0.2719   0.2996   0.3425   0.4486   0.4499   0.4863
     0.4870   0.5351   0.5374   0.6925   0.7305   0.7314   0.7474   0.7849
     0.7871   0.8278   0.8306   0.9008   0.9021   0.9290   0.9729   0.9963
     0.9966   1.0253   1.0961   1.0982   1.1143   1.1631   1.1634   1.1789
     1.1790   1.1839   1.1931   1.2114   1.2119   1.2140   1.2849   1.2862
     1.3025   1.3032   1.3063   1.3795   1.3804   1.3948   1.3981   1.3991
     1.4389   1.4393   1.4860   1.5366   1.5406   1.5408   1.5459   1.5462
     1.5953   1.6196   1.6197   1.6492   1.6609   1.6616   1.6858   1.6982
     1.8355   1.8357   1.9433   1.9494   1.9494   1.9858   1.9859   2.0045
     2.5453   2.5480   2.5585   2.7679   2.8487   2.8492   2.8820   3.9944
     3.9962   4.8411   5.1470   5.1476   5.1657   5.6174   5.6248   6.0353
     6.6550   6.6986   6.7771   6.7791   6.8165   6.9263   6.9282

[...]

          k = 0.4000-0.4619 0.0000 ( 89368 PWs)   bands (ev):

   -12.7154  -8.8569  -5.8950  -5.8435  -5.2799  -4.8285  -4.7084  -4.6041
    -4.4481  -4.3857  -4.0838  -4.0655  -3.9551  -3.9170  -3.8156  -3.8073
    -3.7061  -3.6992  -3.6354  -3.6010  -3.5758  -3.5694  -3.5523  -3.5142
    -3.4636  -3.3976  -3.3781  -3.3686  -3.3467  -3.3317  -3.2936  -3.2251
    -3.1268  -3.0858  -3.0597  -3.0133  -2.9862  -2.9623  -2.9336  -2.9033
    -2.7550  -2.7502  -2.6689  -2.5759  -2.5560  -2.5226  -2.5057  -2.4316
    -2.4093  -2.3283  -2.2948  -2.2655  -2.2271  -2.1976  -2.1548  -2.1385
    -2.0888  -2.0702  -2.0349  -2.0130  -1.9656  -1.9610  -1.9270  -1.9175
    -1.8932  -1.8713  -1.8425  -1.8009  -1.7795  -1.7181  -1.6839  -1.6462
    -1.6176  -1.5191  -1.4937  -1.4915  -1.4537  -1.4287  -1.4122  -1.3813
    -1.3381  -1.2922  -1.2858  -1.2655  -1.2419  -1.1991  -1.1624  -1.1132
    -1.0862  -1.0751  -1.0473  -1.0376  -0.9658  -0.9369  -0.8943  -0.8859
    -0.8560  -0.8283  -0.8106  -0.7879  -0.7820  -0.7620  -0.7494  -0.7141
    -0.6952  -0.6804  -0.6662  -0.6311  -0.6220  -0.6151  -0.6034  -0.5716
    -0.5535  -0.5105  -0.3663  -0.3335  -0.2885  -0.2537  -0.2171  -0.1539
    -0.1350  -0.1050  -0.0974  -0.0737  -0.0340  -0.0206  -0.0078   0.0226
     0.0606   0.0933   0.1300   0.1419   0.2333   0.2440   0.2527   0.3234
     0.3301   0.4225   0.4627   0.4765   0.5150   0.5563   0.5848   0.6071
     0.6301   0.6599   0.6755   0.6996   0.7071   0.7807   0.7986   0.8216
     0.8271   0.8864   0.9025   0.9422   0.9492   1.0170   1.0678   1.1477
     1.1831   1.2428   1.2994   1.3506   1.3686   1.4153   1.4323   1.4965
     1.5059   1.5455   1.5963   1.6389   1.6550   1.6848   1.7072   1.7211
     1.7680   1.7850   1.8443   1.8547   1.8606   1.8804   1.9094   1.9229
     1.9345   2.0094   2.0359   2.0884   2.1245   2.1529   2.1559   2.2071
     2.2329   2.2881   2.3953   2.8799   3.0560   3.2313   3.3190   3.3874
     3.5377   3.6107   3.6281   3.8295   3.9964   4.1695   4.3392   4.4452
     4.4609   4.7937   4.8125   4.9954   5.0334   5.1413   5.2011   5.2502
     5.3993   5.5869   5.6937   5.9384   6.2164   6.3734   6.4140

     the Fermi energy is     1.9286 ev

!    total energy              =  -27795.97487975 Ry

     total all-electron energy =  -1326798.268482 Ry
     estimated scf accuracy    <       0.00000043 Ry
     smearing contrib. (-TS)   =       0.00498045 Ry
     internal energy E=F+TS    =  -27795.97986020 Ry

     The total energy is F=E-TS. E is the sum of the following terms:
     one-electron contribution =  -27104.32139014 Ry
     hartree contribution      =   13854.92553275 Ry
     xc contribution           =    -901.86279577 Ry
     ewald contribution        =   11842.35454657 Ry
     one-center paw contrib.   =  -25487.07575361 Ry

     convergence has been achieved in  19 iterations

[...]

     Forces acting on atoms (cartesian axes, Ry/au):

     atom    1 type  1   force =     0.00004472    0.00118788   -0.00381523
     atom    2 type  1   force =    -0.00003420   -0.00004100   -0.00331930
     atom    3 type  1   force =     0.00006511   -0.00004898   -0.00329951
     atom    4 type  1   force =    -0.00023750    0.00012144   -0.00405489
     atom    5 type  1   force =     0.00001449    0.00002832   -0.00328604
     atom    6 type  1   force =     0.00027973    0.00012201   -0.00404972
     atom    7 type  1   force =    -0.00104100   -0.00060384   -0.00382820
     atom    8 type  1   force =     0.00106827   -0.00058333   -0.00385534
     atom    9 type  1   force =     0.00002349   -0.00029947   -0.00409097
     atom   10 type  1   force =    -0.00013236   -0.00216677    0.00447708
     atom   11 type  1   force =     0.00011542    0.00005245    0.01022132
     atom   12 type  1   force =     0.00021761   -0.00216788    0.00462539
     atom   13 type  1   force =     0.00190871    0.00129423    0.00456594
     atom   14 type  1   force =    -0.00175128    0.00122848    0.00461729
     atom   15 type  1   force =     0.00009058    0.00000802    0.00261675
     atom   16 type  1   force =    -0.00012971   -0.00005778   -0.00600433
     atom   17 type  1   force =    -0.00193103    0.00094096    0.00448940
     atom   18 type  1   force =     0.00211044    0.00097730    0.00457768
     atom   19 type  1   force =    -0.00004955    0.00033371    0.00001938
     atom   20 type  1   force =    -0.00010878   -0.00005649    0.00014297
     atom   21 type  1   force =    -0.00009306   -0.00004447    0.00018568
     atom   22 type  1   force =    -0.00036627   -0.00025844   -0.00001519
     atom   23 type  1   force =    -0.00008981    0.00010640   -0.00020396
     atom   24 type  1   force =     0.00025048   -0.00023854    0.00001832
     atom   25 type  1   force =     0.00005531   -0.00013479   -0.00017313
     atom   26 type  1   force =    -0.00022337   -0.00014218   -0.00013370
     atom   27 type  1   force =    -0.00011041   -0.00006131    0.00015854
     atom   28 type  1   force =    -0.00009507    0.00004830   -0.00005430
     atom   29 type  1   force =    -0.00042920   -0.00029407   -0.00013564
     atom   30 type  1   force =     0.00001440   -0.00013633    0.00008906
     atom   31 type  1   force =    -0.00025237    0.00002318   -0.00020411
     atom   32 type  1   force =    -0.00007388    0.00014620   -0.00009296
     atom   33 type  1   force =     0.00003268    0.00001136   -0.00018492
     atom   34 type  1   force =    -0.00019666   -0.00015707   -0.00002447
     atom   35 type  1   force =    -0.00000266   -0.00013372   -0.00003529
     atom   36 type  1   force =    -0.00011578   -0.00023249   -0.00019591
     atom   37 type  2   force =     0.00054531    0.00152368    0.00082757
     atom   38 type  2   force =    -0.00215902    0.00198058    0.00242154
     atom   39 type  3   force =     0.00001689    0.00022119   -0.00001870
     atom   40 type  3   force =    -0.00039526   -0.00047346   -0.00006537
     atom   41 type  3   force =     0.00316459   -0.00202328   -0.00291270

     Total force =     0.006499     Total SCF correction =     0.001070
     SCF correction compared to forces is large: reduce conv_thr to get better values

[...]

     negative rho (up, down):  1.258E-02 0.000E+00

     negative rho (up, down):  1.258E-02 0.000E+00
 BEEFens 2000 ensemble energies
             -0.603240403875350E+02
             -0.359997333924241E+01
             -0.157623791915386E+02
              0.427184057714422E+02
             -0.220095101893478E+02
             -0.204419067687303E+02
             -0.349693999747998E+02
             -0.859795610992185E+02
             -0.463104034038931E+02
             -0.470875532316710E+02
             -0.367347972982262E+02
              0.222841522833005E+01
              0.403961043392530E+01
              0.765911107045844E+01
              0.263775533072351E+01
              0.472389469514754E+02
             -0.207814605390294E+02
             -0.229655390049400E+02
              0.191796659204854E+02
             -0.111783149103629E+03
              0.533259967859334E+02
             -0.288904188500251E+02
             -0.332468977173081E+01
             -0.113683005302448E+02
             -0.884737229682435E+01
             -0.460413180260582E+01
              0.878047661025003E+02
             -0.185880764465734E+02
             -0.895231910122379E+01
             -0.515309313033685E+02
              0.811903381730720E+02
             -0.187049275965883E+02
             -0.372841518250204E+02
              0.248189637183113E+02
             -0.283690027996829E+01
              0.162569205782689E+02
             -0.486613586240355E+01
              0.108089405251994E+02
              0.286333422849253E+02
             -0.102735797264343E+03
              0.555538827077383E+02
              0.141624592831558E+02
             -0.165511232436353E+01
             -0.359789551262497E+02
              0.122595328153287E+02
             -0.145888509984298E+02
              0.395810870108771E+02
              0.362908099236522E+02
             -0.307131324087095E+02
             -0.273402510332672E+02
             -0.326885080765525E+02
             -0.350115728639600E+02
              0.135147745221315E+02
             -0.488022828970564E+02
              0.114716439628370E+02
              0.619613272555212E+02
              0.631271993127673E+02
              0.354182701741064E+02
              0.153141154856177E+02
              0.268731940364136E+02
[...]
             -0.702107166142961E+02
             -0.906691520869003E+00
             -0.247112182430270E+01
             -0.876556556908440E+01
             -0.183026323357797E+01
             -0.649329758977339E+02
             -0.210220212630662E+02
              0.531962830139937E+01
              0.891613698109884E+01
              0.466168513524237E+02
             -0.395421695971500E+02
              0.654341879942971E+02
             -0.423207678819900E+02
              0.208898382465875E+02
              0.347931626366358E+02

 BEEF-vdW xc energy contributions
           1 :   -778.858713968426
           2 :    715.795986095060
           3 :   -606.489532279981
           4 :    477.632987233991
           5 :   -356.486372545408
           6 :    262.793815754537
           7 :   -204.237347774104
           8 :    176.361517610584
           9 :   -166.563860126662
          10 :    160.244448730633
          11 :   -146.591373503448
          12 :    121.818611697414
          13 :   -89.0176717833442
          14 :    55.2428274314622
          15 :   -27.5105846370539
          16 :    9.53136028166966
          17 :  -0.446288756772105
          18 :   -4.18231656313196
          19 :    9.85718109452171
          20 :   -20.4355746217348
          21 :    36.4653826984924
          22 :   -55.2242399612555
          23 :    72.2738673611003
          24 :   -83.6785592193036
          25 :    87.7975112184663
          26 :   -85.8644458633773
          27 :    81.1852621038486
          28 :   -77.4360195421184
          29 :    76.9196851474894
          30 :   -79.6039559950389
          31 :   -85.3605416462822
          32 :   -65.4816437973476

     Writing output data file ./pwscf.save/

     General routines

     Parallel routines

   This run was terminated on:  18:20:33  26Sep2022

   JOB DONE.