     Program PWSCF v.6.7MaX starts on  4Jan2023 at 10:26: 5

     Reading input from cchc-tri-ensemble.in
Warning: card &CELL ignored
Warning: card / ignored

     Current dimensions of program PWSCF are:
     Max number of different atomic species (ntypx) = 10
     Max number of k-points (npk) =  40000
     Max angular momentum in pseudopotentials (lmaxx) =  3
     file Pt.pbe-n-kjpaw_psl.1.0.0.UPF: wavefunction(s)  6S 5D renormalized
     file C.pbe-n-kjpaw_psl.1.0.0.UPF: wavefunction(s)  2S 2P renormalized
     file H.pbe-kjpaw_psl.1.0.0.UPF: wavefunction(s)  1S renormalized

     IMPORTANT: XC functional enforced from input :
     Exchange-correlation= BEEF-VDW
                           (   1   4  43  14   2   0   0)
     Any further DFT definition will be discarded
     Please, verify this is what you really want

     Subspace diagonalization in iterative solution of the eigenvalue problem:
     a serial algorithm will be used

     bravais-lattice index     =            0
     lattice parameter (alat)  =      16.0349  a.u.
     unit-cell volume          =   11317.0534 (a.u.)^3
     number of atoms/cell      =           40
     number of atomic types    =            3
     number of electrons       =       373.00
     number of Kohn-Sham states=          224
     kinetic-energy cutoff     =      60.0000  Ry
     charge density cutoff     =     240.0000  Ry
     scf convergence threshold =      1.0E-06
     mixing beta               =       0.7000
     number of iterations used =            8  local-TF  mixing
     Exchange-correlation= BEEF-VDW
                           (   1   4  43  14   2   0   0)

     celldm(1)=  16.034858  celldm(2)=   0.000000  celldm(3)=   0.000000
     celldm(4)=   0.000000  celldm(5)=   0.000000  celldm(6)=   0.000000

     crystal axes: (cart. coord. in units of alat)
               a(1) = (   1.000000   0.000000   0.000000 )
               a(2) = (   0.500000   0.866025   0.000000 )
               a(3) = (   0.000000   0.000000   3.169621 )

     reciprocal axes: (cart. coord. in units 2 pi/alat)
               b(1) = (  1.000000 -0.577350  0.000000 )
               b(2) = (  0.000000  1.154701  0.000000 )
               b(3) = (  0.000000  0.000000  0.315495 )

     PseudoPot. # 1 for Pt read from file:
     /users/bkreitz1/quantum-espresso/potentials/Pt.pbe-n-kjpaw_psl.1.0.0.UPF
     MD5 check sum: 04dc8a03c51ece93fc7b5889c2958091
     Pseudo is Projector augmented-wave + core cor, Zval = 10.0
     Generated using 'atomic' code by A. Dal Corso  v.6.7MaX
     Shape of augmentation charge: PSQ
     Using radial grid of 1277 points,  6 beta functions with:
                l(1) =   0
                l(2) =   0
                l(3) =   1
                l(4) =   1
                l(5) =   2
                l(6) =   2
     Q(r) pseudized with 0 coefficients

     PseudoPot. # 2 for C  read from file:
     /users/bkreitz1/quantum-espresso/potentials/C.pbe-n-kjpaw_psl.1.0.0.UPF
     MD5 check sum: a169b0ebad56f5ec0d79c4633f80bf22
     Pseudo is Projector augmented-wave + core cor, Zval =  4.0
     Generated using 'atomic' code by A. Dal Corso  v.6.7MaX
     Shape of augmentation charge: PSQ
     Using radial grid of 1073 points,  4 beta functions with:
                l(1) =   0
                l(2) =   0
                l(3) =   1
                l(4) =   1
     Q(r) pseudized with 0 coefficients

     PseudoPot. # 3 for H  read from file:
     /users/bkreitz1/quantum-espresso/potentials/H.pbe-kjpaw_psl.1.0.0.UPF
     MD5 check sum: ae98473e6dc62675f0d0baffdab24f65
     Pseudo is Projector augmented-wave, Zval =  1.0
     Generated using 'atomic' code by A. Dal Corso  v.6.7MaX
     Shape of augmentation charge: PSQ
     Using radial grid of  929 points,  2 beta functions with:
                l(1) =   0
                l(2) =   0
     Q(r) pseudized with 0 coefficients

     atomic species   valence    mass     pseudopotential
        Pt            10.00   195.08400     Pt( 1.00)
        C              4.00    12.01100     C ( 1.00)
        H              1.00     1.00800     H ( 1.00)

     No symmetry found

   Cartesian axes

     site n.     atom                  positions (alat units)
         1           Pt  tau(   1) = (   0.0000000   0.0000000   1.0017346  )
         2           Pt  tau(   2) = (   0.3333333   0.0000000   1.0017346  )
         3           Pt  tau(   3) = (   0.6666667   0.0000000   1.0017346  )
         4           Pt  tau(   4) = (   0.1666667   0.2886751   1.0017346  )
         5           Pt  tau(   5) = (   0.5000000   0.2886751   1.0017346  )
         6           Pt  tau(   6) = (   0.8333333   0.2886751   1.0017346  )
         7           Pt  tau(   7) = (   0.3333333   0.5773503   1.0017346  )
         8           Pt  tau(   8) = (   0.6666667   0.5773503   1.0017346  )
         9           Pt  tau(   9) = (   1.0000000   0.5773503   1.0017346  )
        10           Pt  tau(  10) = (   0.1666667   0.0962250   1.2739001  )
        11           Pt  tau(  11) = (   0.5000000   0.0962250   1.2739001  )
        12           Pt  tau(  12) = (   0.8333333   0.0962250   1.2739001  )
        13           Pt  tau(  13) = (   0.3333333   0.3849002   1.2739001  )
        14           Pt  tau(  14) = (   0.6666667   0.3849002   1.2739001  )
        15           Pt  tau(  15) = (   1.0000000   0.3849002   1.2739001  )
        16           Pt  tau(  16) = (   0.5000000   0.6735753   1.2739001  )
        17           Pt  tau(  17) = (   0.8333333   0.6735753   1.2739001  )
        18           Pt  tau(  18) = (   1.1666667   0.6735753   1.2739001  )
        19           Pt  tau(  19) = (  -0.0044391   0.1925613   1.5481713  )
        20           Pt  tau(  20) = (   0.3332008   0.1896319   1.5422203  )
        21           Pt  tau(  21) = (   0.6695567   0.1886592   1.5588878  )
        22           Pt  tau(  22) = (   0.1670367   0.4786375   1.5392669  )
        23           Pt  tau(  23) = (   0.5008415   0.4794367   1.5420547  )
        24           Pt  tau(  24) = (   0.8296213   0.4769631   1.5434606  )
        25           Pt  tau(  25) = (   0.3287639   0.7702287   1.5479073  )
        26           Pt  tau(  26) = (   0.6626222   0.7699435   1.5483957  )
        27           Pt  tau(  27) = (   0.9997521   0.7718699   1.5440115  )
        28           Pt  tau(  28) = (  -0.0173718   0.0056507   1.8222817  )
        29           Pt  tau(  29) = (   0.3207780   0.0002674   1.8266914  )
        30           Pt  tau(  30) = (   0.6581356  -0.0009077   1.8627663  )
        31           Pt  tau(  31) = (   0.1675337   0.2792948   1.8172029  )
        32           Pt  tau(  32) = (   0.4938486   0.2879296   1.8170133  )
        33           Pt  tau(  33) = (   0.8261902   0.2894074   1.8639974  )
        34           Pt  tau(  34) = (   0.3382871   0.5747764   1.8164018  )
        35           Pt  tau(  35) = (   0.6570644   0.5816811   1.8264286  )
        36           Pt  tau(  36) = (   1.0183732   0.5623097   1.8010036  )
        37           C   tau(  37) = (   0.8287258   0.5073601   1.9628724  )
        38           C   tau(  38) = (   0.9411624   0.6067573   2.0451977  )
        39           C   tau(  39) = (   0.9706596   0.7534677   1.9622161  )
        40           H   tau(  40) = (   1.0122310   0.5662996   2.1449110  )

     number of k points=    13  Marzari-Vanderbilt smearing, width (Ry)=  0.0200
                       cart. coord. in units 2pi/alat
        k(    1) = (   0.0000000   0.0000000   0.0000000), wk =   0.0800000
        k(    2) = (   0.0000000   0.2309401   0.0000000), wk =   0.1600000
        k(    3) = (   0.0000000   0.4618802   0.0000000), wk =   0.1600000
        k(    4) = (   0.2000000  -0.1154701   0.0000000), wk =   0.1600000
        k(    5) = (   0.2000000   0.1154701   0.0000000), wk =   0.1600000
        k(    6) = (   0.2000000   0.3464102   0.0000000), wk =   0.1600000
        k(    7) = (   0.2000000  -0.5773503   0.0000000), wk =   0.1600000
        k(    8) = (   0.2000000  -0.3464102   0.0000000), wk =   0.1600000
        k(    9) = (   0.4000000  -0.2309401   0.0000000), wk =   0.1600000
        k(   10) = (   0.4000000  -0.0000000   0.0000000), wk =   0.1600000
        k(   11) = (   0.4000000   0.2309401   0.0000000), wk =   0.1600000
        k(   12) = (   0.4000000  -0.6928203   0.0000000), wk =   0.1600000
        k(   13) = (   0.4000000  -0.4618802   0.0000000), wk =   0.1600000

     Check: negative core charge=   -0.000002

     Initial potential from superposition of free atoms

     starting charge  372.99376, renormalised to  373.00000

     negative rho (up, down):  1.218E-02 0.000E+00

     %%%%%%%%%%%%%%%%%%%%%%%%%%%%%%%%%%%%%%%%%%%%%%%%%%%%%%%%%%%%%%%%%%%%%%%%
     %                                                                      %
     % You are using vdW-DF, which was implemented by the Thonhauser group. %
     % Please cite the following two papers that made this development      %
     % possible and the two reviews that describe the various versions:     %
     %                                                                      %
     %   T. Thonhauser et al., PRL 115, 136402 (2015).                      %
     %   T. Thonhauser et al., PRB 76, 125112 (2007).                       %
     %   K. Berland et al., Rep. Prog. Phys. 78, 066501 (2015).             %
     %   D.C. Langreth et al., J. Phys.: Condens. Matter 21, 084203 (2009). %
     %                                                                      %
     %                                                                      %
     % If you are calculating the stress with vdW-DF, please also cite:     %
     %                                                                      %
     %   R. Sabatini et al., J. Phys.: Condens. Matter 24, 424209 (2012).   %
     %                                                                      %
     %%%%%%%%%%%%%%%%%%%%%%%%%%%%%%%%%%%%%%%%%%%%%%%%%%%%%%%%%%%%%%%%%%%%%%%%

     Starting wfcs are  337 randomized atomic wfcs
     Checking if some PAW data can be deallocated...

     Self-consistent Calculation

     iteration #  1     ecut=    60.00 Ry     beta= 0.70
     Davidson diagonalization with overlap
     ethr =  1.00E-02,  avg # of iterations =  2.0

     Threshold (ethr) on eigenvalues was too large:
     Diagonalizing with lowered threshold

     Davidson diagonalization with overlap
     ethr =  7.94E-04,  avg # of iterations =  2.6

[...]

     total energy              =  -27811.88004442 Ry
     estimated scf accuracy    <       3.25927894 Ry

[...]

     iteration #  5     ecut=    60.00 Ry     beta= 0.70
     Davidson diagonalization with overlap
     c_bands:  1 eigenvalues not converged
     c_bands:  2 eigenvalues not converged
     c_bands:  2 eigenvalues not converged
     c_bands:  1 eigenvalues not converged
     ethr =  2.27E-05,  avg # of iterations = 17.6

[...]

     iteration # 16     ecut=    60.00 Ry     beta= 0.70
     Davidson diagonalization with overlap
     c_bands:  1 eigenvalues not converged
     ethr =  1.73E-08,  avg # of iterations =  3.2

[...]

     total energy              =  -27812.33342785 Ry
     estimated scf accuracy    <       0.00000134 Ry

     iteration # 19     ecut=    60.00 Ry     beta= 0.70
     Davidson diagonalization with overlap
     ethr =  3.60E-10,  avg # of iterations =  2.9

[...]

     End of self-consistent calculation

          k = 0.0000 0.0000 0.0000 ( 88877 PWs)   bands (ev):

   -14.6722 -10.5056  -8.1593  -6.7222  -5.9771  -5.3587  -5.2572  -4.9711
    -4.4096  -4.3940  -4.3674  -4.3608  -4.3073  -4.2961  -4.2592  -4.2068
    -3.8956  -3.8457  -3.8092  -3.8061  -3.7640  -3.6759  -3.5707  -3.5351
    -3.4810  -3.4231  -3.3325  -3.2437  -3.2409  -3.2216  -3.1630  -3.1459
    -3.1161  -3.0454  -3.0330  -3.0281  -2.9798  -2.9612  -2.9527  -2.8716
    -2.8611  -2.8200  -2.8062  -2.7368  -2.7289  -2.5985  -2.4951  -2.4582
    -2.3804  -2.3621  -2.3119  -2.3019  -2.2856  -2.2551  -2.1851  -2.1532
    -2.0611  -2.0511  -2.0423  -2.0157  -2.0107  -1.8008  -1.7420  -1.6467
    -1.6212  -1.5976  -1.5614  -1.5260  -1.5173  -1.4860  -1.4569  -1.4514
    -1.3904  -1.3462  -1.3444  -1.3224  -1.2761  -1.2562  -1.2508  -1.2289
    -1.2212  -1.1963  -1.1701  -1.1543  -1.1518  -1.1448  -1.1395  -1.1342
    -1.1026  -1.0247  -1.0109  -0.9350  -0.8941  -0.8791  -0.8605  -0.8298
    -0.7992  -0.7788  -0.7720  -0.7440  -0.7162  -0.6944  -0.6658  -0.6612
    -0.6438  -0.6187  -0.6161  -0.6098  -0.5949  -0.5401  -0.4937  -0.4901
    -0.4185  -0.3734  -0.3337  -0.2571  -0.1435  -0.1405  -0.0614  -0.0046
     0.0094   0.0561   0.0832   0.1282   0.1650   0.1707   0.2112   0.2401
     0.2469   0.2615   0.2733   0.2793   0.3037   0.3467   0.5047   0.5136
     0.5283   0.5302   0.5926   0.6235   0.6666   0.7038   0.7296   0.7440
     0.7483   0.8055   0.8467   0.8583   0.8645   0.8833   0.9453   0.9555
     0.9819   1.0048   1.0460   1.0976   1.0984   1.1513   1.1735   1.1809
     1.1892   1.2085   1.2131   1.2165   1.2300   1.2496   1.2558   1.3032
     1.3117   1.3240   1.3270   1.3771   1.3804   1.4071   1.4130   1.4400
     1.4527   1.4814   1.5274   1.5375   1.5428   1.5547   1.5604   1.5823
     1.6229   1.6265   1.6518   1.6763   1.6936   1.7418   1.7522   1.7627
     1.8810   1.8959   1.9424   1.9604   1.9819   2.0036   2.0353   2.0616
     2.3257   2.3323   2.5147   2.6444   2.8548   2.8907   3.3080   3.6403
     3.6569   3.8899   4.7368   5.0115   5.1395   5.2595   5.4209   5.4438
     6.0584   6.3117   6.4985   6.7464   6.7641   6.8705   6.9042   6.9221

[...]

          k = 0.4000-0.4619 0.0000 ( 88792 PWs)   bands (ev):

   -14.6701 -10.5148  -8.0947  -5.9130  -5.9066  -5.6710  -5.3267  -5.0709
    -4.9842  -4.4984  -4.3229  -4.0820  -3.9861  -3.9192  -3.8904  -3.7618
    -3.7436  -3.7263  -3.6863  -3.6554  -3.5906  -3.5590  -3.5436  -3.5285
    -3.4815  -3.4732  -3.4163  -3.3449  -3.3029  -3.2959  -3.2564  -3.2256
    -3.2071  -3.1683  -3.0926  -3.0538  -2.9954  -2.9287  -2.9074  -2.8785
    -2.8468  -2.7868  -2.7080  -2.6847  -2.6414  -2.5554  -2.5182  -2.4879
    -2.4648  -2.4307  -2.3979  -2.3243  -2.2818  -2.2496  -2.2074  -2.1662
    -2.1597  -2.0666  -2.0326  -2.0043  -1.9935  -1.9657  -1.9479  -1.9202
    -1.8703  -1.8482  -1.8236  -1.7927  -1.7792  -1.7640  -1.7321  -1.6810
    -1.6479  -1.6160  -1.5952  -1.5281  -1.4813  -1.4504  -1.4325  -1.3849
    -1.3730  -1.3234  -1.2949  -1.2745  -1.2464  -1.1902  -1.1776  -1.1631
    -1.1369  -1.0772  -1.0683  -1.0270  -1.0163  -0.9825  -0.9259  -0.9130
    -0.9047  -0.8164  -0.8090  -0.7980  -0.7647  -0.7393  -0.7238  -0.6952
    -0.6895  -0.6581  -0.6426  -0.5981  -0.5849  -0.5725  -0.5608  -0.5412
    -0.5165  -0.4866  -0.4338  -0.4177  -0.3833  -0.3511  -0.2855  -0.2399
    -0.1562  -0.1229  -0.1040  -0.0912  -0.0462  -0.0422   0.0124   0.0608
     0.0903   0.1356   0.1426   0.1925   0.2043   0.2196   0.2489   0.2895
     0.3180   0.3834   0.4403   0.4810   0.5310   0.5599   0.5835   0.6144
     0.6264   0.6471   0.6867   0.7272   0.7431   0.7731   0.7935   0.8321
     0.8372   0.8737   0.9235   0.9336   0.9796   0.9960   1.0600   1.1351
     1.1601   1.2229   1.2740   1.3452   1.3934   1.4114   1.4350   1.4849
     1.5169   1.5762   1.6039   1.6432   1.6782   1.6974   1.7220   1.7406
     1.7614   1.8019   1.8294   1.8636   1.8751   1.8863   1.9150   1.9409
     1.9824   2.0574   2.0611   2.1228   2.1476   2.1781   2.1953   2.2381
     2.2440   2.3107   2.4052   2.4567   2.7606   2.9912   3.1712   3.3670
     3.4485   3.5309   3.5915   3.6620   3.7509   3.9134   4.0456   4.3109
     4.4439   4.4808   4.5069   4.8896   4.9137   5.0344   5.0549   5.2099
     5.2455   5.4074   5.5063   5.6458   5.9952   6.0583   6.3236   6.3977

     the Fermi energy is     1.9752 ev

!    total energy              =  -27812.33342798 Ry

     total all-electron energy =  -1326872.391136 Ry
     estimated scf accuracy    <       0.00000035 Ry
     smearing contrib. (-TS)   =       0.00514255 Ry
     internal energy E=F+TS    =  -27812.33857053 Ry

     The total energy is F=E-TS. E is the sum of the following terms:
     one-electron contribution =  -27076.05953509 Ry
     hartree contribution      =   13841.58625222 Ry
     xc contribution           =    -905.09463024 Ry
     ewald contribution        =   11820.92051208 Ry
     one-center paw contrib.   =  -25493.69116950 Ry

     convergence has been achieved in  19 iterations

[...]

     Forces acting on atoms (cartesian axes, Ry/au):

     atom    1 type  1   force =     0.00094129   -0.00018648   -0.00414726
     atom    2 type  1   force =    -0.00082762   -0.00191829   -0.00583135
     atom    3 type  1   force =     0.00021690    0.00012528   -0.00387985
     atom    4 type  1   force =    -0.00153023    0.00005062   -0.00420720
     atom    5 type  1   force =     0.00269723   -0.00124692   -0.00558692
     atom    6 type  1   force =     0.00028850    0.00019448   -0.00384221
     atom    7 type  1   force =    -0.00054371    0.00160568   -0.00428893
     atom    8 type  1   force =     0.00148331    0.00208979   -0.00590071
     atom    9 type  1   force =     0.00022406    0.00021143   -0.00544043
     atom   10 type  1   force =    -0.00068540   -0.00110420    0.00484352
     atom   11 type  1   force =     0.00382321    0.00519626    0.00669001
     atom   12 type  1   force =    -0.00447268    0.00170292    0.02019066
     atom   13 type  1   force =     0.00205322   -0.00193398   -0.00753907
     atom   14 type  1   force =    -0.00359047   -0.00695699    0.00578048
     atom   15 type  1   force =    -0.00166612   -0.00281054    0.00274867
     atom   16 type  1   force =    -0.00005761    0.00007072    0.00466316
     atom   17 type  1   force =    -0.00312815    0.00130065    0.00233797
     atom   18 type  1   force =     0.00066272    0.00136513    0.00303324
     atom   19 type  1   force =    -0.00011627    0.00070002    0.00001839
     atom   20 type  1   force =     0.00016939    0.00038868   -0.00020934
     atom   21 type  1   force =     0.00006638    0.00013775   -0.00027786
     atom   22 type  1   force =     0.00028618    0.00009323   -0.00030646
     atom   23 type  1   force =    -0.00028015   -0.00036133   -0.00016313
     atom   24 type  1   force =     0.00005005    0.00010471   -0.00005972
     atom   25 type  1   force =     0.00022589    0.00019018    0.00021707
     atom   26 type  1   force =     0.00044111   -0.00013111   -0.00032582
     atom   27 type  1   force =    -0.00013759    0.00022066   -0.00030004
     atom   28 type  1   force =     0.00008099   -0.00000144   -0.00026087
     atom   29 type  1   force =     0.00015518   -0.00053309   -0.00030782
     atom   30 type  1   force =     0.00014390    0.00009072    0.00028757
     atom   31 type  1   force =    -0.00047614    0.00013419   -0.00018649
     atom   32 type  1   force =     0.00031636    0.00042609    0.00016914
     atom   33 type  1   force =    -0.00016247   -0.00014681   -0.00036079
     atom   34 type  1   force =     0.00017291    0.00031851   -0.00025992
     atom   35 type  1   force =    -0.00014825    0.00042562   -0.00021205
     atom   36 type  1   force =     0.00015339    0.00019014    0.00056200
     atom   37 type  2   force =     0.00237683    0.00005182    0.00096364
     atom   38 type  2   force =     0.00465714   -0.00297531    0.00900819
     atom   39 type  2   force =     0.00165553    0.00015189    0.00110449
     atom   40 type  3   force =    -0.00551879    0.00276928   -0.00872398

     Total force =     0.015509     Total SCF correction =     0.000860

[...]

     negative rho (up, down):  1.332E-02 0.000E+00

     negative rho (up, down):  1.332E-02 0.000E+00
 BEEFens 2000 ensemble energies
             -0.605375692867395E+02
             -0.362108350958152E+01
             -0.158215054710566E+02
              0.428661225524395E+02
             -0.220623953520656E+02
             -0.205058150238676E+02
             -0.351196175770901E+02
             -0.863205340778759E+02
             -0.464653586000685E+02
             -0.472494901223577E+02
             -0.368655026765186E+02
              0.222089664515053E+01
              0.406253570809764E+01
              0.763911526686147E+01
              0.265822487643322E+01
              0.474109293545050E+02
             -0.208661540089494E+02
             -0.230531644271026E+02
              0.192625213583582E+02
             -0.112166193786100E+03
              0.535332304969280E+02
             -0.289634795646512E+02
             -0.335031108453887E+01
             -0.113936202002660E+02
             -0.887483250107823E+01
             -0.467898427323095E+01
              0.881154724017122E+02
             -0.186274883164320E+02
             -0.901165659085086E+01
             -0.517450097859115E+02
              0.814861831448025E+02
             -0.187597037422552E+02
             -0.374513612824962E+02
              0.249194379188454E+02
             -0.283951863396851E+01
              0.163363942880981E+02
             -0.486885158862765E+01
              0.108158403161412E+02
              0.287084868356088E+02
             -0.103132511128073E+03
              0.557217763223047E+02
              0.142033185907982E+02
             -0.166440006231545E+01
             -0.361169858712984E+02
              0.122970241216979E+02
             -0.146053765865474E+02
              0.397653165305111E+02
              0.364259472304028E+02
             -0.308003664601429E+02
             -0.274746172147520E+02
             -0.327878880398838E+02
             -0.351205497800316E+02
              0.135249171015716E+02
             -0.490144940685165E+02
              0.115144313893494E+02
              0.621646399735502E+02
              0.633729810006144E+02
              0.355066064803030E+02
              0.153981821909625E+02
              0.269555833140877E+02
[...]
             -0.704634123457537E+02
             -0.945539160449130E+00
             -0.245111792686847E+01
             -0.881079817772650E+01
             -0.178266932828785E+01
             -0.651730440662097E+02
             -0.211004446472062E+02
              0.534121073316835E+01
              0.891547059237485E+01
              0.467862931018802E+02
             -0.396945087731767E+02
              0.656532993577670E+02
             -0.424579567410329E+02
              0.209595685123327E+02
              0.349545699328754E+02

 BEEF-vdW xc energy contributions
           1 :   -781.667719328725
           2 :    718.511860582066
           3 :   -608.893492784261
           4 :    479.463322281851
           5 :   -357.592434340927
           6 :    263.189851792133
           7 :   -204.062053862432
           8 :    175.805305977311
           9 :   -165.808515762879
          10 :    159.432777450850
          11 :   -145.822900256359
          12 :    121.157372829921
          13 :   -88.4974257778342
          14 :    54.8645212235883
          15 :   -27.2400808710177
          16 :    9.30886119112029
          17 :  -0.213452394427691
          18 :   -4.45114694687982
          19 :    10.1377825408518
          20 :   -20.6615162220053
          21 :    36.5611127861549
          22 :   -55.1481329977707
          23 :    72.0464820399470
          24 :   -83.3784643835252
          25 :    87.5252113740050
          26 :   -85.6940415881082
          27 :    81.1296086285471
          28 :   -77.4420315954958
          29 :    76.8942572489079
          30 :   -79.4577593012547
          31 :   -85.6945195579148
          32 :   -65.7769644464464

     Writing output data file ./pwscf.save/

     General routines

     Parallel routines

   This run was terminated on:  14:14:23   4Jan2023

   JOB DONE.