     Program PWSCF v.6.7MaX starts on  3Jan2023 at 22:29:43

     Reading input from cchch3-bi-ensemble.in
Warning: card &CELL ignored
Warning: card / ignored

     Current dimensions of program PWSCF are:
     Max number of different atomic species (ntypx) = 10
     Max number of k-points (npk) =  40000
     Max angular momentum in pseudopotentials (lmaxx) =  3
     file Pt.pbe-n-kjpaw_psl.1.0.0.UPF: wavefunction(s)  6S 5D renormalized
     file C.pbe-n-kjpaw_psl.1.0.0.UPF: wavefunction(s)  2S 2P renormalized
     file H.pbe-kjpaw_psl.1.0.0.UPF: wavefunction(s)  1S renormalized

     IMPORTANT: XC functional enforced from input :
     Exchange-correlation= BEEF-VDW
                           (   1   4  43  14   2   0   0)
     Any further DFT definition will be discarded
     Please, verify this is what you really want

     Subspace diagonalization in iterative solution of the eigenvalue problem:
     a serial algorithm will be used

     bravais-lattice index     =            0
     lattice parameter (alat)  =      16.0349  a.u.
     unit-cell volume          =   11778.0026 (a.u.)^3
     number of atoms/cell      =           43
     number of atomic types    =            3
     number of electrons       =       376.00
     number of Kohn-Sham states=          226
     kinetic-energy cutoff     =      60.0000  Ry
     charge density cutoff     =     240.0000  Ry
     scf convergence threshold =      1.0E-06
     mixing beta               =       0.7000
     number of iterations used =            8  local-TF  mixing
     Exchange-correlation= BEEF-VDW
                           (   1   4  43  14   2   0   0)

     celldm(1)=  16.034858  celldm(2)=   0.000000  celldm(3)=   0.000000
     celldm(4)=   0.000000  celldm(5)=   0.000000  celldm(6)=   0.000000

     crystal axes: (cart. coord. in units of alat)
               a(1) = (   1.000000   0.000000   0.000000 )
               a(2) = (   0.500000   0.866025   0.000000 )
               a(3) = (   0.000000   0.000000   3.298722 )

     reciprocal axes: (cart. coord. in units 2 pi/alat)
               b(1) = (  1.000000 -0.577350  0.000000 )
               b(2) = (  0.000000  1.154701  0.000000 )
               b(3) = (  0.000000  0.000000  0.303148 )

     PseudoPot. # 1 for Pt read from file:
     /users/bkreitz1/quantum-espresso/potentials/Pt.pbe-n-kjpaw_psl.1.0.0.UPF
     MD5 check sum: 04dc8a03c51ece93fc7b5889c2958091
     Pseudo is Projector augmented-wave + core cor, Zval = 10.0
     Generated using 'atomic' code by A. Dal Corso  v.6.7MaX
     Shape of augmentation charge: PSQ
     Using radial grid of 1277 points,  6 beta functions with:
                l(1) =   0
                l(2) =   0
                l(3) =   1
                l(4) =   1
                l(5) =   2
                l(6) =   2
     Q(r) pseudized with 0 coefficients

     PseudoPot. # 2 for C  read from file:
     /users/bkreitz1/quantum-espresso/potentials/C.pbe-n-kjpaw_psl.1.0.0.UPF
     MD5 check sum: a169b0ebad56f5ec0d79c4633f80bf22
     Pseudo is Projector augmented-wave + core cor, Zval =  4.0
     Generated using 'atomic' code by A. Dal Corso  v.6.7MaX
     Shape of augmentation charge: PSQ
     Using radial grid of 1073 points,  4 beta functions with:
                l(1) =   0
                l(2) =   0
                l(3) =   1
                l(4) =   1
     Q(r) pseudized with 0 coefficients

     PseudoPot. # 3 for H  read from file:
     /users/bkreitz1/quantum-espresso/potentials/H.pbe-kjpaw_psl.1.0.0.UPF
     MD5 check sum: ae98473e6dc62675f0d0baffdab24f65
     Pseudo is Projector augmented-wave, Zval =  1.0
     Generated using 'atomic' code by A. Dal Corso  v.6.7MaX
     Shape of augmentation charge: PSQ
     Using radial grid of  929 points,  2 beta functions with:
                l(1) =   0
                l(2) =   0
     Q(r) pseudized with 0 coefficients

     atomic species   valence    mass     pseudopotential
        Pt            10.00   195.08400     Pt( 1.00)
        C              4.00    12.01100     C ( 1.00)
        H              1.00     1.00800     H ( 1.00)

     No symmetry found

   Cartesian axes

     site n.     atom                  positions (alat units)
         1           Pt  tau(   1) = (   0.0000000   0.0000000   1.0017346  )
         2           Pt  tau(   2) = (   0.3333333   0.0000000   1.0017346  )
         3           Pt  tau(   3) = (   0.6666667   0.0000000   1.0017346  )
         4           Pt  tau(   4) = (   0.1666667   0.2886751   1.0017346  )
         5           Pt  tau(   5) = (   0.5000000   0.2886751   1.0017346  )
         6           Pt  tau(   6) = (   0.8333333   0.2886751   1.0017346  )
         7           Pt  tau(   7) = (   0.3333333   0.5773503   1.0017346  )
         8           Pt  tau(   8) = (   0.6666667   0.5773503   1.0017346  )
         9           Pt  tau(   9) = (   1.0000000   0.5773503   1.0017346  )
        10           Pt  tau(  10) = (   0.1666667   0.0962250   1.2739001  )
        11           Pt  tau(  11) = (   0.5000000   0.0962250   1.2739001  )
        12           Pt  tau(  12) = (   0.8333333   0.0962250   1.2739001  )
        13           Pt  tau(  13) = (   0.3333333   0.3849002   1.2739001  )
        14           Pt  tau(  14) = (   0.6666667   0.3849002   1.2739001  )
        15           Pt  tau(  15) = (   1.0000000   0.3849002   1.2739001  )
        16           Pt  tau(  16) = (   0.5000000   0.6735753   1.2739001  )
        17           Pt  tau(  17) = (   0.8333333   0.6735753   1.2739001  )
        18           Pt  tau(  18) = (   1.1666667   0.6735753   1.2739001  )
        19           Pt  tau(  19) = (   0.0000536   0.1957088   1.5447913  )
        20           Pt  tau(  20) = (   0.3360905   0.1958052   1.5454744  )
        21           Pt  tau(  21) = (   0.6677080   0.1950665   1.5451396  )
        22           Pt  tau(  22) = (   0.1675877   0.4831401   1.5414961  )
        23           Pt  tau(  23) = (   0.5019187   0.4822775   1.5463590  )
        24           Pt  tau(  24) = (   0.8336028   0.4822681   1.5460643  )
        25           Pt  tau(  25) = (   0.3347379   0.7722627   1.5423560  )
        26           Pt  tau(  26) = (   0.6678390   0.7681489   1.5500648  )
        27           Pt  tau(  27) = (   1.0006006   0.7722008   1.5424865  )
        28           Pt  tau(  28) = (   0.0009352   0.0087692   1.8186866  )
        29           Pt  tau(  29) = (   0.3370420   0.0089698   1.8193266  )
        30           Pt  tau(  30) = (   0.6688470   0.0006678   1.8169852  )
        31           Pt  tau(  31) = (   0.1690483   0.2946603   1.8181670  )
        32           Pt  tau(  32) = (   0.4968976   0.2896471   1.8324202  )
        33           Pt  tau(  33) = (   0.8413487   0.2889977   1.8299094  )
        34           Pt  tau(  34) = (   0.3329215   0.5837037   1.8142560  )
        35           Pt  tau(  35) = (   0.6692661   0.5990254   1.8337137  )
        36           Pt  tau(  36) = (   1.0046553   0.5837439   1.8148430  )
        37           C   tau(  37) = (   0.6702527   0.3842311   1.9585769  )
        38           C   tau(  38) = (   0.6763191   0.4961631   2.0813058  )
        39           C   tau(  39) = (   0.5424070   0.5337935   2.1913033  )
        40           H   tau(  40) = (   0.7932052   0.5230244   2.1269704  )
        41           H   tau(  41) = (   0.4283809   0.5053936   2.1395057  )
        42           H   tau(  42) = (   0.5570340   0.4645308   2.2994644  )
        43           H   tau(  43) = (   0.5442239   0.6582834   2.2250341  )

     number of k points=    13  Marzari-Vanderbilt smearing, width (Ry)=  0.0200
                       cart. coord. in units 2pi/alat
        k(    1) = (   0.0000000   0.0000000   0.0000000), wk =   0.0800000
        k(    2) = (   0.0000000   0.2309401   0.0000000), wk =   0.1600000
        k(    3) = (   0.0000000   0.4618802   0.0000000), wk =   0.1600000
        k(    4) = (   0.2000000  -0.1154701   0.0000000), wk =   0.1600000
        k(    5) = (   0.2000000   0.1154701   0.0000000), wk =   0.1600000
        k(    6) = (   0.2000000   0.3464102   0.0000000), wk =   0.1600000
        k(    7) = (   0.2000000  -0.5773503   0.0000000), wk =   0.1600000
        k(    8) = (   0.2000000  -0.3464102   0.0000000), wk =   0.1600000
        k(    9) = (   0.4000000  -0.2309401   0.0000000), wk =   0.1600000
        k(   10) = (   0.4000000  -0.0000000   0.0000000), wk =   0.1600000
        k(   11) = (   0.4000000   0.2309401   0.0000000), wk =   0.1600000
        k(   12) = (   0.4000000  -0.6928203   0.0000000), wk =   0.1600000
        k(   13) = (   0.4000000  -0.4618802   0.0000000), wk =   0.1600000

     Check: negative core charge=   -0.000002

     Initial potential from superposition of free atoms

     starting charge  375.99373, renormalised to  376.00000

     negative rho (up, down):  1.176E-02 0.000E+00

     %%%%%%%%%%%%%%%%%%%%%%%%%%%%%%%%%%%%%%%%%%%%%%%%%%%%%%%%%%%%%%%%%%%%%%%%
     %                                                                      %
     % You are using vdW-DF, which was implemented by the Thonhauser group. %
     % Please cite the following two papers that made this development      %
     % possible and the two reviews that describe the various versions:     %
     %                                                                      %
     %   T. Thonhauser et al., PRL 115, 136402 (2015).                      %
     %   T. Thonhauser et al., PRB 76, 125112 (2007).                       %
     %   K. Berland et al., Rep. Prog. Phys. 78, 066501 (2015).             %
     %   D.C. Langreth et al., J. Phys.: Condens. Matter 21, 084203 (2009). %
     %                                                                      %
     %                                                                      %
     % If you are calculating the stress with vdW-DF, please also cite:     %
     %                                                                      %
     %   R. Sabatini et al., J. Phys.: Condens. Matter 24, 424209 (2012).   %
     %                                                                      %
     %%%%%%%%%%%%%%%%%%%%%%%%%%%%%%%%%%%%%%%%%%%%%%%%%%%%%%%%%%%%%%%%%%%%%%%%

     Starting wfcs are  340 randomized atomic wfcs
     Checking if some PAW data can be deallocated...

     Self-consistent Calculation

     iteration #  1     ecut=    60.00 Ry     beta= 0.70
     Davidson diagonalization with overlap
     ethr =  1.00E-02,  avg # of iterations =  2.2

     Threshold (ethr) on eigenvalues was too large:
     Diagonalizing with lowered threshold

     Davidson diagonalization with overlap
     ethr =  8.31E-04,  avg # of iterations =  2.8

[...]

     total energy              =  -27815.85480313 Ry
     estimated scf accuracy    <       3.39886325 Ry

[...]

     iteration #  5     ecut=    60.00 Ry     beta= 0.70
     Davidson diagonalization with overlap
     c_bands:  1 eigenvalues not converged
     ethr =  6.55E-05,  avg # of iterations =  6.7

[...]

     iteration # 11     ecut=    60.00 Ry     beta= 0.70
     Davidson diagonalization with overlap
     c_bands:  1 eigenvalues not converged
     ethr =  2.48E-07,  avg # of iterations =  2.6

[...]

     total energy              =  -27816.16663880 Ry
     estimated scf accuracy    <       0.00000223 Ry

     iteration # 20     ecut=    60.00 Ry     beta= 0.70
     Davidson diagonalization with overlap
     ethr =  5.92E-10,  avg # of iterations =  4.3

[...]

     End of self-consistent calculation

          k = 0.0000 0.0000 0.0000 ( 92567 PWs)   bands (ev):

   -13.9664 -11.1374  -7.9402  -6.9384  -5.8146  -5.5402  -4.8641  -4.7504
    -4.5873  -4.5693  -4.5576  -4.5543  -4.5127  -4.4992  -4.4436  -4.2875
    -4.0423  -4.0151  -4.0080  -3.9977  -3.9529  -3.9209  -3.7651  -3.6236
    -3.5759  -3.5511  -3.5400  -3.4363  -3.3650  -3.3478  -3.3458  -3.3278
    -3.3156  -3.2380  -3.2274  -3.2019  -3.1601  -3.1417  -3.1045  -3.0856
    -3.0704  -3.0553  -3.0463  -3.0221  -3.0129  -2.9804  -2.8111  -2.5726
    -2.5682  -2.5206  -2.4901  -2.4759  -2.4613  -2.4374  -2.4225  -2.4013
    -2.3654  -2.2431  -2.2370  -2.1906  -2.1785  -2.0434  -1.9572  -1.8024
    -1.7396  -1.7068  -1.6914  -1.6758  -1.6486  -1.6248  -1.5540  -1.5229
    -1.5065  -1.4811  -1.4728  -1.4677  -1.4627  -1.4350  -1.4311  -1.4224
    -1.3899  -1.3787  -1.3628  -1.3538  -1.3508  -1.3427  -1.2939  -1.2916
    -1.2726  -1.2571  -1.2463  -1.0889  -1.0795  -1.0577  -1.0300  -1.0231
    -1.0183  -1.0002  -0.9901  -0.9691  -0.9442  -0.9412  -0.8398  -0.8329
    -0.8056  -0.7891  -0.7851  -0.7785  -0.7374  -0.6910  -0.6859  -0.6724
    -0.6467  -0.6292  -0.5871  -0.5083  -0.2857  -0.2407  -0.2301  -0.1746
    -0.1444  -0.1312  -0.1283  -0.1180  -0.0830  -0.0235   0.0103   0.0147
     0.0654   0.0784   0.0985   0.1021   0.1222   0.1448   0.2194   0.2519
     0.3146   0.3411   0.3517   0.3825   0.3923   0.4799   0.5332   0.5900
     0.6074   0.6157   0.6529   0.6664   0.6782   0.7296   0.7406   0.7767
     0.7905   0.8420   0.8675   0.8742   0.9120   0.9671   0.9808   1.0407
     1.0459   1.0506   1.0590   1.0604   1.0661   1.0726   1.0887   1.0919
     1.1498   1.1564   1.1657   1.1723   1.1783   1.2463   1.2543   1.2717
     1.2782   1.2827   1.3261   1.3305   1.3623   1.4115   1.4138   1.4208
     1.4283   1.4361   1.4434   1.4540   1.5017   1.5023   1.5163   1.5386
     1.5639   1.5775   1.6701   1.6956   1.8093   1.8150   1.8207   1.8636
     1.8666   1.8811   1.9662   2.3626   2.4074   2.6406   2.7242   2.7322
     2.7546   3.2350   3.7471   4.5764   5.0098   5.0131   5.0471   5.3732
     5.4188   5.6731   5.8082   6.4627   6.6318   6.6418   6.6761   6.6948
     6.7963   6.8055

[...]

          k = 0.4000-0.4619 0.0000 ( 92446 PWs)   bands (ev):

   -13.9656 -11.1352  -7.9063  -6.0596  -5.9760  -5.6616  -5.3884  -4.9073
    -4.7537  -4.6783  -4.4101  -4.2204  -4.1991  -4.0874  -4.0579  -3.9493
    -3.9399  -3.8441  -3.8368  -3.8140  -3.7356  -3.7228  -3.6981  -3.6902
    -3.6574  -3.6305  -3.5998  -3.5229  -3.5091  -3.4964  -3.4688  -3.4602
    -3.3667  -3.3006  -3.2450  -3.2171  -3.1735  -3.1467  -3.0952  -3.0905
    -3.0513  -3.0238  -2.9408  -2.8866  -2.8739  -2.7149  -2.6903  -2.6686
    -2.6161  -2.5939  -2.5657  -2.4961  -2.4453  -2.4131  -2.3610  -2.3447
    -2.3136  -2.2826  -2.2222  -2.1984  -2.1751  -2.1491  -2.1210  -2.1041
    -2.0708  -2.0502  -2.0226  -2.0119  -1.9727  -1.9519  -1.9182  -1.8902
    -1.8114  -1.7847  -1.7534  -1.7031  -1.6398  -1.6285  -1.5996  -1.5729
    -1.5608  -1.5394  -1.5076  -1.4613  -1.4425  -1.4078  -1.3640  -1.3551
    -1.2991  -1.2492  -1.2160  -1.2082  -1.1986  -1.1851  -1.1303  -1.0800
    -1.0410  -1.0258  -1.0004  -0.9695  -0.9538  -0.9277  -0.9178  -0.8985
    -0.8811  -0.8523  -0.8459  -0.8245  -0.7916  -0.7675  -0.7532  -0.7407
    -0.7263  -0.7208  -0.6955  -0.6678  -0.5282  -0.5141  -0.4770  -0.4338
    -0.3643  -0.3291  -0.2850  -0.2535  -0.2336  -0.1959  -0.1674  -0.1618
    -0.1382  -0.1187  -0.0896  -0.0664  -0.0281  -0.0049   0.0741   0.1123
     0.1215   0.1505   0.1694   0.2358   0.2767   0.3340   0.3466   0.4271
     0.4473   0.4611   0.4937   0.5299   0.5467   0.5566   0.5697   0.6421
     0.6666   0.6767   0.7084   0.7524   0.7681   0.7946   0.8230   0.8617
     0.9293   0.9663   1.0469   1.0927   1.1218   1.2141   1.2352   1.2695
     1.2995   1.3399   1.3681   1.3971   1.4503   1.4942   1.5088   1.5528
     1.5767   1.5979   1.6329   1.6493   1.6916   1.7153   1.7259   1.7533
     1.7692   1.7979   1.8082   1.8653   1.8974   1.9332   1.9911   2.0136
     2.0353   2.0792   2.0954   2.1418   2.2505   2.4162   2.8069   2.9453
     3.1714   3.2096   3.3728   3.4590   3.4762   3.6026   3.8276   3.9926
     4.1374   4.2413   4.3143   4.5303   4.6628   4.7450   4.8908   4.9130
     5.0443   5.0817   5.2418   5.4451   5.5216   5.6682   5.9529   6.1676
     6.2602   6.3605

     the Fermi energy is     1.8078 ev

!    total energy              =  -27816.16663921 Ry

     total all-electron energy =  -1326876.224334 Ry
     estimated scf accuracy    <       0.00000073 Ry
     smearing contrib. (-TS)   =       0.00405700 Ry
     internal energy E=F+TS    =  -27816.17069621 Ry

     The total energy is F=E-TS. E is the sum of the following terms:
     one-electron contribution =  -29249.70806951 Ry
     hartree contribution      =   14927.61254027 Ry
     xc contribution           =    -907.50839396 Ry
     ewald contribution        =   12907.07408731 Ry
     one-center paw contrib.   =  -25493.64086032 Ry

     convergence has been achieved in  20 iterations

[...]

     Forces acting on atoms (cartesian axes, Ry/au):

     atom    1 type  1   force =    -0.00121912   -0.00085866   -0.00366000
     atom    2 type  1   force =     0.00080661   -0.00085155   -0.00352314
     atom    3 type  1   force =    -0.00015425   -0.00067409   -0.00427997
     atom    4 type  1   force =    -0.00015514    0.00207326   -0.00660065
     atom    5 type  1   force =    -0.00090436   -0.00039866   -0.00324130
     atom    6 type  1   force =     0.00063965   -0.00045632   -0.00326807
     atom    7 type  1   force =    -0.00075838   -0.00070745   -0.00476580
     atom    8 type  1   force =    -0.00016976   -0.00004742   -0.00346254
     atom    9 type  1   force =     0.00050718   -0.00067792   -0.00471734
     atom   10 type  1   force =     0.00072233   -0.00305156    0.00076660
     atom   11 type  1   force =    -0.00217777    0.00133719    0.00377498
     atom   12 type  1   force =     0.00302906    0.00128424    0.00322415
     atom   13 type  1   force =    -0.00030035   -0.00247387    0.00280124
     atom   14 type  1   force =     0.00021849    0.00163962    0.01022541
     atom   15 type  1   force =     0.00119077   -0.00235895    0.00218342
     atom   16 type  1   force =     0.00404051    0.00194166    0.00702659
     atom   17 type  1   force =    -0.00325386    0.00201731    0.00732184
     atom   18 type  1   force =     0.00041789    0.00140443    0.00081670
     atom   19 type  1   force =    -0.00025131   -0.00003384   -0.00038057
     atom   20 type  1   force =     0.00029849    0.00032351   -0.00015669
     atom   21 type  1   force =    -0.00003596    0.00012438   -0.00003328
     atom   22 type  1   force =     0.00007188   -0.00038221   -0.00054325
     atom   23 type  1   force =     0.00017014   -0.00022343   -0.00002110
     atom   24 type  1   force =    -0.00011272   -0.00038857    0.00021184
     atom   25 type  1   force =     0.00018843    0.00009715   -0.00075882
     atom   26 type  1   force =    -0.00003104   -0.00023115    0.00015160
     atom   27 type  1   force =    -0.00047203    0.00017393   -0.00064219
     atom   28 type  1   force =     0.00016943    0.00001732    0.00009927
     atom   29 type  1   force =     0.00003042    0.00028994    0.00004723
     atom   30 type  1   force =    -0.00014149    0.00017119    0.00026423
     atom   31 type  1   force =     0.00005403   -0.00039791   -0.00002797
     atom   32 type  1   force =    -0.00017124   -0.00025660   -0.00010875
     atom   33 type  1   force =    -0.00027425    0.00020596    0.00013550
     atom   34 type  1   force =     0.00009617   -0.00024838    0.00024249
     atom   35 type  1   force =    -0.00012341    0.00024214    0.00066873
     atom   36 type  1   force =    -0.00014651   -0.00030128    0.00033811
     atom   37 type  2   force =    -0.00097935    0.00190461    0.00015066
     atom   38 type  2   force =     0.00002537    0.00174472    0.00058943
     atom   39 type  2   force =    -0.00054055    0.00175105    0.00104235
     atom   40 type  3   force =    -0.00035103   -0.00046604   -0.00001448
     atom   41 type  3   force =    -0.00015479    0.00050669    0.00050819
     atom   42 type  3   force =    -0.00005344   -0.00068230   -0.00016918
     atom   43 type  3   force =     0.00025526   -0.00308213   -0.00221546

     Total force =     0.005689     Total SCF correction =     0.002319
     SCF correction compared to forces is large: reduce conv_thr to get better values

[...]

     negative rho (up, down):  1.336E-02 0.000E+00

     negative rho (up, down):  1.336E-02 0.000E+00
 BEEFens 2000 ensemble energies
             -0.607490828721031E+02
             -0.361659364828836E+01
             -0.158503225655124E+02
              0.429890091650976E+02
             -0.221341263201980E+02
             -0.205462941556335E+02
             -0.352779957893451E+02
             -0.866093424093343E+02
             -0.465417161016697E+02
             -0.473087264867742E+02
             -0.369695591908626E+02
              0.227373895765277E+01
              0.407897963841975E+01
              0.761157054615029E+01
              0.266145148162974E+01
              0.475469693296063E+02
             -0.209032977282297E+02
             -0.230356939007727E+02
              0.193344520328461E+02
             -0.112501233015368E+03
              0.536937404291250E+02
             -0.289996060564355E+02
             -0.335462108514999E+01
             -0.114132157907340E+02
             -0.883513136996339E+01
             -0.464883464101499E+01
              0.883723840721406E+02
             -0.187288641912571E+02
             -0.901528157327732E+01
             -0.519105514404788E+02
              0.816307682241254E+02
             -0.187320096382018E+02
             -0.375493136314351E+02
              0.249435204511268E+02
             -0.284268812161599E+01
              0.164472693217281E+02
             -0.485063238529818E+01
              0.108010353952117E+02
              0.288788088347134E+02
             -0.103384051522871E+03
              0.558962705453992E+02
              0.142502841175400E+02
             -0.172859288130428E+01
             -0.361833651903779E+02
              0.123333171633480E+02
             -0.146861632901418E+02
              0.399055376193668E+02
              0.365182087255178E+02
             -0.308262009153755E+02
             -0.275512601660347E+02
             -0.328803260801124E+02
             -0.352516229485691E+02
              0.136552154187242E+02
             -0.491509760890185E+02
              0.115731849455680E+02
              0.623704858070011E+02
              0.636179574337941E+02
              0.356116048300662E+02
              0.154285137603489E+02
              0.270860529078908E+02
[...]
             -0.706976166328255E+02
             -0.892198410707351E+00
             -0.246441410579249E+01
             -0.883727539582628E+01
             -0.179061862112900E+01
             -0.653504772217598E+02
             -0.210755670267197E+02
              0.540955522696627E+01
              0.900193585673213E+01
              0.469400560884705E+02
             -0.398199399832834E+02
              0.657749093702951E+02
             -0.425650760923090E+02
              0.210668792718629E+02
              0.350782064297264E+02

 BEEF-vdW xc energy contributions
           1 :   -783.565479152118
           2 :    719.849115756468
           3 :   -609.489281774198
           4 :    479.492112499610
           5 :   -357.353226768939
           6 :    262.942787999806
           7 :   -203.972950813000
           8 :    175.946813085548
           9 :   -166.176763296034
          10 :    159.962367890548
          11 :   -146.406531610761
          12 :    121.676429389999
          13 :   -88.8563500035268
          14 :    55.0204645827736
          15 :   -27.2190470587268
          16 :    9.19766625097066
          17 :  -0.122597738379454
          18 :   -4.43880761838182
          19 :    10.0050530111389
          20 :   -20.4634623260741
          21 :    36.3976176841112
          22 :   -55.1154463751629
          23 :    72.1906652884995
          24 :   -83.6716132128760
          25 :    87.8766682890006
          26 :   -85.9921088124373
          27 :    81.2923269557974
          28 :   -77.4523302170918
          29 :    76.8043719531875
          30 :   -79.3622933794196
          31 :   -85.9943117207657
          32 :   -65.9182968521122

     Writing output data file ./pwscf.save/

     General routines

     Parallel routines

   This run was terminated on:   2:45:43   4Jan2023

   JOB DONE.