     Program PWSCF v.6.7MaX starts on 20May2022 at 16:33:14

     Reading input from ccho-ensemble.in
Warning: card &CELL ignored
Warning: card / ignored

     Current dimensions of program PWSCF are:
     Max number of different atomic species (ntypx) = 10
     Max number of k-points (npk) =  40000
     Max angular momentum in pseudopotentials (lmaxx) =  3
     file Pt.pbe-n-kjpaw_psl.1.0.0.UPF: wavefunction(s)  6S 5D renormalized
     file C.pbe-n-kjpaw_psl.1.0.0.UPF: wavefunction(s)  2S 2P renormalized
     file O.pbe-nl-kjpaw_psl.1.0.0.UPF: wavefunction(s)  2S 2P renormalized
     file H.pbe-kjpaw_psl.1.0.0.UPF: wavefunction(s)  1S renormalized

     IMPORTANT: XC functional enforced from input :
     Exchange-correlation= BEEF-VDW
                           (   1   4  43  14   2   0   0)
     Any further DFT definition will be discarded
     Please, verify this is what you really want

     Subspace diagonalization in iterative solution of the eigenvalue problem:
     a serial algorithm will be used

     bravais-lattice index     =            0
     lattice parameter (alat)  =      16.0349  a.u.
     unit-cell volume          =   11512.7893 (a.u.)^3
     number of atoms/cell      =           40
     number of atomic types    =            4
     number of electrons       =       375.00
     number of Kohn-Sham states=          226
     kinetic-energy cutoff     =      60.0000  Ry
     charge density cutoff     =     240.0000  Ry
     scf convergence threshold =      1.0E-06
     mixing beta               =       0.7000
     number of iterations used =            8  local-TF  mixing
     Exchange-correlation= BEEF-VDW
                           (   1   4  43  14   2   0   0)

     celldm(1)=  16.034858  celldm(2)=   0.000000  celldm(3)=   0.000000
     celldm(4)=   0.000000  celldm(5)=   0.000000  celldm(6)=   0.000000

     crystal axes: (cart. coord. in units of alat)
               a(1) = (   1.000000   0.000000   0.000000 )
               a(2) = (   0.500000   0.866025   0.000000 )
               a(3) = (   0.000000   0.000000   3.224442 )

     reciprocal axes: (cart. coord. in units 2 pi/alat)
               b(1) = (  1.000000 -0.577350  0.000000 )
               b(2) = (  0.000000  1.154701  0.000000 )
               b(3) = (  0.000000  0.000000  0.310131 )

     PseudoPot. # 1 for Pt read from file:
     /users/bkreitz1/quantum-espresso/potentials/Pt.pbe-n-kjpaw_psl.1.0.0.UPF
     MD5 check sum: 04dc8a03c51ece93fc7b5889c2958091
     Pseudo is Projector augmented-wave + core cor, Zval = 10.0
     Generated using 'atomic' code by A. Dal Corso  v.6.7MaX
     Shape of augmentation charge: PSQ
     Using radial grid of 1277 points,  6 beta functions with:
                l(1) =   0
                l(2) =   0
                l(3) =   1
                l(4) =   1
                l(5) =   2
                l(6) =   2
     Q(r) pseudized with 0 coefficients

     PseudoPot. # 2 for C  read from file:
     /users/bkreitz1/quantum-espresso/potentials/C.pbe-n-kjpaw_psl.1.0.0.UPF
     MD5 check sum: a169b0ebad56f5ec0d79c4633f80bf22
     Pseudo is Projector augmented-wave + core cor, Zval =  4.0
     Generated using 'atomic' code by A. Dal Corso  v.6.7MaX
     Shape of augmentation charge: PSQ
     Using radial grid of 1073 points,  4 beta functions with:
                l(1) =   0
                l(2) =   0
                l(3) =   1
                l(4) =   1
     Q(r) pseudized with 0 coefficients

     PseudoPot. # 3 for O  read from file:
     /users/bkreitz1/quantum-espresso/potentials/O.pbe-nl-kjpaw_psl.1.0.0.UPF
     MD5 check sum: eef08af8b58d9ec80f8fdb78829eb7cf
     Pseudo is Projector augmented-wave + core cor, Zval =  6.0
     Generated using 'atomic' code by A. Dal Corso  v.6.7MaX
     Shape of augmentation charge: PSQ
     Using radial grid of 1095 points,  4 beta functions with:
                l(1) =   0
                l(2) =   0
                l(3) =   1
                l(4) =   1
     Q(r) pseudized with 0 coefficients

     PseudoPot. # 4 for H  read from file:
     /users/bkreitz1/quantum-espresso/potentials/H.pbe-kjpaw_psl.1.0.0.UPF
     MD5 check sum: ae98473e6dc62675f0d0baffdab24f65
     Pseudo is Projector augmented-wave, Zval =  1.0
     Generated using 'atomic' code by A. Dal Corso  v.6.7MaX
     Shape of augmentation charge: PSQ
     Using radial grid of  929 points,  2 beta functions with:
                l(1) =   0
                l(2) =   0
     Q(r) pseudized with 0 coefficients

     atomic species   valence    mass     pseudopotential
        Pt            10.00   195.08400     Pt( 1.00)
        C              4.00    12.01100     C ( 1.00)
        O              6.00    15.99900     O ( 1.00)
        H              1.00     1.00800     H ( 1.00)

     No symmetry found

   Cartesian axes

     site n.     atom                  positions (alat units)
         1           Pt  tau(   1) = (   0.0000000   0.0000000   1.0017346  )
         2           Pt  tau(   2) = (   0.3333333   0.0000000   1.0017346  )
         3           Pt  tau(   3) = (   0.6666667   0.0000000   1.0017346  )
         4           Pt  tau(   4) = (   0.1666667   0.2886751   1.0017346  )
         5           Pt  tau(   5) = (   0.5000000   0.2886751   1.0017346  )
         6           Pt  tau(   6) = (   0.8333333   0.2886751   1.0017346  )
         7           Pt  tau(   7) = (   0.3333333   0.5773503   1.0017346  )
         8           Pt  tau(   8) = (   0.6666667   0.5773503   1.0017346  )
         9           Pt  tau(   9) = (   1.0000000   0.5773503   1.0017346  )
        10           Pt  tau(  10) = (   0.1666667   0.0962250   1.2739001  )
        11           Pt  tau(  11) = (   0.5000000   0.0962250   1.2739001  )
        12           Pt  tau(  12) = (   0.8333333   0.0962250   1.2739001  )
        13           Pt  tau(  13) = (   0.3333333   0.3849002   1.2739001  )
        14           Pt  tau(  14) = (   0.6666667   0.3849002   1.2739001  )
        15           Pt  tau(  15) = (   1.0000000   0.3849002   1.2739001  )
        16           Pt  tau(  16) = (   0.5000000   0.6735753   1.2739001  )
        17           Pt  tau(  17) = (   0.8333333   0.6735753   1.2739001  )
        18           Pt  tau(  18) = (   1.1666667   0.6735753   1.2739001  )
        19           Pt  tau(  19) = (  -0.0000812   0.1932780   1.5457810  )
        20           Pt  tau(  20) = (   0.3321773   0.1922553   1.5451595  )
        21           Pt  tau(  21) = (   0.6643917   0.1930465   1.5452636  )
        22           Pt  tau(  22) = (   0.1652190   0.4798561   1.5450386  )
        23           Pt  tau(  23) = (   0.4991420   0.4792922   1.5451043  )
        24           Pt  tau(  24) = (   0.8322875   0.4806756   1.5433042  )
        25           Pt  tau(  25) = (   0.3326667   0.7696001   1.5394184  )
        26           Pt  tau(  26) = (   0.6671078   0.7696221   1.5456497  )
        27           Pt  tau(  27) = (   0.9977675   0.7698757   1.5451442  )
        28           Pt  tau(  28) = (  -0.0057995  -0.0023099   1.8162299  )
        29           Pt  tau(  29) = (   0.3304208  -0.0038793   1.8315745  )
        30           Pt  tau(  30) = (   0.6671308  -0.0022579   1.8156793  )
        31           Pt  tau(  31) = (   0.1599553   0.2905960   1.8319066  )
        32           Pt  tau(  32) = (   0.4993341   0.2895387   1.8334142  )
        33           Pt  tau(  33) = (   0.8297391   0.2881750   1.8188612  )
        34           Pt  tau(  34) = (   0.3307130   0.5805056   1.8157323  )
        35           Pt  tau(  35) = (   0.6638264   0.5762605   1.8187293  )
        36           Pt  tau(  36) = (   0.9971845   0.5769792   1.8185776  )
        37           C   tau(  37) = (   0.3285852   0.1924661   1.9653251  )
        38           C   tau(  38) = (   0.3210240   0.1810442   2.1414786  )
        39           O   tau(  39) = (   0.4274088   0.2248910   2.2270259  )
        40           H   tau(  40) = (   0.2109445   0.1279662   2.1880852  )

     number of k points=    13  Marzari-Vanderbilt smearing, width (Ry)=  0.0200
                       cart. coord. in units 2pi/alat
        k(    1) = (   0.0000000   0.0000000   0.0000000), wk =   0.0800000
        k(    2) = (   0.0000000   0.2309401   0.0000000), wk =   0.1600000
        k(    3) = (   0.0000000   0.4618802   0.0000000), wk =   0.1600000
        k(    4) = (   0.2000000  -0.1154701   0.0000000), wk =   0.1600000
        k(    5) = (   0.2000000   0.1154701   0.0000000), wk =   0.1600000
        k(    6) = (   0.2000000   0.3464102   0.0000000), wk =   0.1600000
        k(    7) = (   0.2000000  -0.5773503   0.0000000), wk =   0.1600000
        k(    8) = (   0.2000000  -0.3464102   0.0000000), wk =   0.1600000
        k(    9) = (   0.4000000  -0.2309401   0.0000000), wk =   0.1600000
        k(   10) = (   0.4000000  -0.0000000   0.0000000), wk =   0.1600000
        k(   11) = (   0.4000000   0.2309401   0.0000000), wk =   0.1600000
        k(   12) = (   0.4000000  -0.6928203   0.0000000), wk =   0.1600000
        k(   13) = (   0.4000000  -0.4618802   0.0000000), wk =   0.1600000

     Check: negative core charge=   -0.000002

     Initial potential from superposition of free atoms

     starting charge  374.99380, renormalised to  375.00000

     negative rho (up, down):  1.218E-02 0.000E+00

     %%%%%%%%%%%%%%%%%%%%%%%%%%%%%%%%%%%%%%%%%%%%%%%%%%%%%%%%%%%%%%%%%%%%%%%%
     %                                                                      %
     % You are using vdW-DF, which was implemented by the Thonhauser group. %
     % Please cite the following two papers that made this development      %
     % possible and the two reviews that describe the various versions:     %
     %                                                                      %
     %   T. Thonhauser et al., PRL 115, 136402 (2015).                      %
     %   T. Thonhauser et al., PRB 76, 125112 (2007).                       %
     %   K. Berland et al., Rep. Prog. Phys. 78, 066501 (2015).             %
     %   D.C. Langreth et al., J. Phys.: Condens. Matter 21, 084203 (2009). %
     %                                                                      %
     %                                                                      %
     % If you are calculating the stress with vdW-DF, please also cite:     %
     %                                                                      %
     %   R. Sabatini et al., J. Phys.: Condens. Matter 24, 424209 (2012).   %
     %                                                                      %
     %%%%%%%%%%%%%%%%%%%%%%%%%%%%%%%%%%%%%%%%%%%%%%%%%%%%%%%%%%%%%%%%%%%%%%%%

     Starting wfcs are  337 randomized atomic wfcs
     Checking if some PAW data can be deallocated...

     Self-consistent Calculation

     iteration #  1     ecut=    60.00 Ry     beta= 0.70
     Davidson diagonalization with overlap
     ethr =  1.00E-02,  avg # of iterations =  2.1

[...]

     total energy              =  -27835.08105719 Ry
     estimated scf accuracy    <       3.99879108 Ry

[...]

     iteration #  5     ecut=    60.00 Ry     beta= 0.70
     Davidson diagonalization with overlap
     c_bands:  1 eigenvalues not converged
     c_bands:  1 eigenvalues not converged
     ethr =  2.81E-05,  avg # of iterations = 13.4

[...]

     iteration #  7     ecut=    60.00 Ry     beta= 0.70
     Davidson diagonalization with overlap
     c_bands:  1 eigenvalues not converged
     c_bands:  1 eigenvalues not converged
     c_bands:  2 eigenvalues not converged
     c_bands:  2 eigenvalues not converged
     c_bands:  1 eigenvalues not converged
     ethr =  1.83E-06,  avg # of iterations = 15.3

[...]

     total energy              =  -27835.93205666 Ry
     estimated scf accuracy    <       0.00000166 Ry

     iteration # 16     ecut=    60.00 Ry     beta= 0.70
     Davidson diagonalization with overlap
     ethr =  4.43E-10,  avg # of iterations =  2.8

[...]

     End of self-consistent calculation

          k = 0.0000 0.0000 0.0000 ( 90343 PWs)   bands (ev):

   -19.9837 -12.0805  -8.1857  -7.1878  -6.0306  -5.7132  -4.9791  -4.9120
    -4.8509  -4.8388  -4.8023  -4.7960  -4.7904  -4.6878  -4.5808  -4.5571
    -4.2734  -4.2557  -4.2539  -4.2406  -4.2009  -4.1322  -3.9678  -3.8300
    -3.8157  -3.8065  -3.6992  -3.6929  -3.6323  -3.5826  -3.5817  -3.5783
    -3.4979  -3.4794  -3.4436  -3.3921  -3.3883  -3.3791  -3.3766  -3.3206
    -3.3158  -3.3146  -3.3028  -3.2718  -3.2554  -2.9582  -2.8678  -2.7964
    -2.7463  -2.7442  -2.7413  -2.7206  -2.6980  -2.6601  -2.6572  -2.5828
    -2.5099  -2.4963  -2.4716  -2.4414  -2.2842  -2.2304  -1.9955  -1.9898
    -1.9489  -1.9394  -1.9367  -1.9158  -1.8636  -1.8154  -1.8142  -1.7361
    -1.7274  -1.7263  -1.7186  -1.7174  -1.6891  -1.6882  -1.6731  -1.6537
    -1.6517  -1.6492  -1.6156  -1.6137  -1.5545  -1.5517  -1.5233  -1.4880
    -1.4863  -1.4776  -1.3208  -1.3173  -1.3080  -1.3062  -1.2903  -1.2638
    -1.2630  -1.2607  -1.1995  -1.1974  -1.1475  -1.0967  -1.0941  -1.0918
    -1.0831  -1.0475  -1.0475  -1.0444  -0.9218  -0.9009  -0.8939  -0.8762
    -0.7980  -0.7951  -0.7652  -0.4279  -0.4268  -0.4247  -0.4151  -0.4065
    -0.3792  -0.3781  -0.3772  -0.3699  -0.2429  -0.2426  -0.2053  -0.2035
    -0.1920  -0.1255  -0.1220  -0.1191  -0.0854  -0.0823   0.0497   0.0753
     0.0898   0.0917   0.1453   0.1654   0.2383   0.3199   0.3489   0.3494
     0.3561   0.3704   0.3995   0.4070   0.4300   0.5721   0.5874   0.5893
     0.5930   0.6077   0.6131   0.6177   0.7298   0.7368   0.7741   0.7776
     0.7915   0.7977   0.8062   0.8124   0.8181   0.8234   0.8255   0.8483
     0.8678   0.8724   0.9226   0.9235   0.9308   0.9727   0.9743   1.0173
     1.0277   1.0292   1.0620   1.0639   1.1038   1.1519   1.1530   1.1689
     1.1738   1.1762   1.2063   1.2377   1.2397   1.2712   1.2947   1.3087
     1.3102   1.3217   1.4553   1.4693   1.5671   1.5755   1.5819   1.5969
     1.6006   1.6265   1.9585   2.1403   2.2048   2.4466   2.4845   2.5034
     2.5040   3.1195   3.5885   4.3999   4.7941   4.7983   4.8183   4.9598
     5.2482   5.6799   6.2329   6.4073   6.4174   6.4253   6.4617   6.5474
     6.6033   6.6101

[...]

          k = 0.4000-0.4619 0.0000 ( 90358 PWs)   bands (ev):

   -19.9837 -12.0774  -8.1488  -6.2843  -6.2368  -5.8432  -5.6332  -5.1489
    -4.9543  -4.6707  -4.6237  -4.4377  -4.3846  -4.3485  -4.2995  -4.2069
    -4.1684  -4.1072  -4.0855  -4.0194  -3.9804  -3.9731  -3.9569  -3.9305
    -3.9066  -3.8634  -3.8149  -3.7744  -3.7568  -3.7487  -3.7204  -3.6571
    -3.6213  -3.5127  -3.4747  -3.4590  -3.3836  -3.3684  -3.3394  -3.3100
    -3.2823  -3.1584  -3.1228  -3.1129  -2.9986  -2.9457  -2.9311  -2.8905
    -2.8572  -2.7744  -2.7524  -2.7257  -2.6310  -2.5914  -2.5822  -2.5444
    -2.5168  -2.4990  -2.4630  -2.4348  -2.3983  -2.3688  -2.3572  -2.3184
    -2.2894  -2.2782  -2.2558  -2.2419  -2.1675  -2.1627  -2.0946  -2.0507
    -2.0242  -2.0061  -1.8993  -1.8862  -1.8728  -1.8429  -1.8230  -1.7945
    -1.7859  -1.7320  -1.6857  -1.6625  -1.6524  -1.6214  -1.6011  -1.5814
    -1.5574  -1.4688  -1.4637  -1.4537  -1.4403  -1.4114  -1.3577  -1.2969
    -1.2784  -1.2536  -1.2064  -1.2018  -1.1786  -1.1711  -1.1441  -1.1373
    -1.1192  -1.0831  -1.0747  -1.0457  -1.0194  -1.0112  -0.9950  -0.9885
    -0.9730  -0.9325  -0.8930  -0.8854  -0.7352  -0.6948  -0.6583  -0.5742
    -0.5496  -0.5332  -0.5165  -0.4830  -0.4612  -0.4403  -0.4224  -0.3960
    -0.3439  -0.3201  -0.2853  -0.2790  -0.2262  -0.2049  -0.1537  -0.1210
    -0.0980  -0.0451   0.0051   0.0372   0.1106   0.1314   0.1688   0.1901
     0.2320   0.2431   0.2755   0.2962   0.3152   0.3304   0.3664   0.3815
     0.4269   0.4764   0.4917   0.5071   0.5348   0.5440   0.5743   0.6422
     0.6885   0.7617   0.8065   0.8419   0.9409   0.9621   0.9909   1.0068
     1.0661   1.1030   1.1418   1.1927   1.2289   1.2724   1.2812   1.3023
     1.3214   1.3472   1.3808   1.3960   1.4629   1.4686   1.4890   1.5157
     1.5265   1.5406   1.5530   1.6298   1.6579   1.7297   1.7533   1.7738
     1.7887   1.8307   1.8434   1.8873   2.0236   2.3336   2.6303   2.7656
     2.9376   2.9891   3.1794   3.2092   3.2700   3.3680   3.5367   3.7857
     3.9007   4.0257   4.0833   4.4001   4.4407   4.4755   4.6281   4.7304
     4.8240   4.9105   5.0504   5.1666   5.3010   5.3856   5.8217   5.9664
     5.9804   6.0188

     the Fermi energy is     1.5496 ev

!    total energy              =  -27835.93205719 Ry

     total all-electron energy =  -1326947.072563 Ry
     estimated scf accuracy    <       0.00000085 Ry
     smearing contrib. (-TS)   =       0.00325901 Ry
     internal energy E=F+TS    =  -27835.93531620 Ry

     The total energy is F=E-TS. E is the sum of the following terms:
     one-electron contribution =  -27718.00075841 Ry
     hartree contribution      =   14158.93516991 Ry
     xc contribution           =    -907.96189483 Ry
     ewald contribution        =   12128.32229799 Ry
     one-center paw contrib.   =  -25497.23013085 Ry

     convergence has been achieved in  16 iterations

[...]

     Forces acting on atoms (cartesian axes, Ry/au):

     atom    1 type  1   force =     0.00123653    0.00064500   -0.00399689
     atom    2 type  1   force =     0.00022309   -0.00009492   -0.00346428
     atom    3 type  1   force =    -0.00086140    0.00064839   -0.00432578
     atom    4 type  1   force =     0.00013607    0.00011950   -0.00342328
     atom    5 type  1   force =     0.00031713    0.00011190   -0.00341997
     atom    6 type  1   force =     0.00025810   -0.00048371   -0.00312977
     atom    7 type  1   force =     0.00022416   -0.00124586   -0.00444226
     atom    8 type  1   force =    -0.00018307    0.00035144   -0.00316585
     atom    9 type  1   force =     0.00049975    0.00025185   -0.00314565
     atom   10 type  1   force =    -0.00153427   -0.00086351    0.00659526
     atom   11 type  1   force =     0.00092040   -0.00084935    0.00573169
     atom   12 type  1   force =     0.00010808    0.00074042   -0.00152386
     atom   13 type  1   force =    -0.00037530    0.00122525    0.00563306
     atom   14 type  1   force =    -0.00124538   -0.00078350    0.00732665
     atom   15 type  1   force =     0.00063479   -0.00095552    0.00741828
     atom   16 type  1   force =     0.00069894   -0.00015470   -0.00192872
     atom   17 type  1   force =    -0.00039424    0.00105484    0.00742664
     atom   18 type  1   force =    -0.00086019   -0.00024715   -0.00298117
     atom   19 type  1   force =    -0.00020508   -0.00027770   -0.00005200
     atom   20 type  1   force =     0.00010104    0.00001527   -0.00012152
     atom   21 type  1   force =     0.00019423    0.00005579    0.00003251
     atom   22 type  1   force =     0.00020615    0.00030440   -0.00009832
     atom   23 type  1   force =     0.00004709    0.00041049    0.00041821
     atom   24 type  1   force =    -0.00030065    0.00020616   -0.00007758
     atom   25 type  1   force =    -0.00038068    0.00020643    0.00040003
     atom   26 type  1   force =    -0.00037979    0.00037294    0.00015115
     atom   27 type  1   force =     0.00018541   -0.00018228    0.00001823
     atom   28 type  1   force =    -0.00005249   -0.00008321   -0.00009309
     atom   29 type  1   force =     0.00020101   -0.00038692   -0.00048864
     atom   30 type  1   force =     0.00021085    0.00001930    0.00008273
     atom   31 type  1   force =    -0.00026058    0.00023979   -0.00045826
     atom   32 type  1   force =     0.00021110    0.00007978   -0.00028557
     atom   33 type  1   force =     0.00014930   -0.00007579    0.00019595
     atom   34 type  1   force =     0.00026380    0.00035662   -0.00010315
     atom   35 type  1   force =    -0.00036474    0.00014014    0.00010016
     atom   36 type  1   force =     0.00010198    0.00033480    0.00011201
     atom   37 type  2   force =    -0.00050128   -0.00208591   -0.00154134
     atom   38 type  2   force =    -0.00235870   -0.00200880    0.00522731
     atom   39 type  3   force =     0.00022557    0.00103597   -0.00101613
     atom   40 type  4   force =     0.00290327    0.00185234   -0.00358681

     Total force =     0.008594     Total SCF correction =     0.002004
     SCF correction compared to forces is large: reduce conv_thr to get better values

[...]

     negative rho (up, down):  1.325E-02 0.000E+00

     negative rho (up, down):  1.325E-02 0.000E+00
 BEEFens 2000 ensemble energies
             -0.607525023035774E+02
             -0.362509750440273E+01
             -0.158635403372741E+02
              0.430257267285697E+02
             -0.221533999157996E+02
             -0.205690011862103E+02
             -0.352812855693489E+02
             -0.866402529379799E+02
             -0.466073101203116E+02
             -0.473968854373049E+02
             -0.369886889050524E+02
              0.226008142354171E+01
              0.405867352831845E+01
              0.765205955436349E+01
              0.266661034178301E+01
              0.475671537881425E+02
             -0.209369207578522E+02
             -0.230880803233402E+02
              0.193092628993491E+02
             -0.112567385180212E+03
              0.537313484152586E+02
             -0.290399216948925E+02
             -0.336365823907557E+01
             -0.114438750613419E+02
             -0.886640793291599E+01
             -0.467193070312135E+01
              0.884252855944484E+02
             -0.187104725846527E+02
             -0.903188454904546E+01
             -0.519136307678154E+02
              0.817246286446923E+02
             -0.187871414677612E+02
             -0.375716997457807E+02
              0.249876079136823E+02
             -0.285764739275726E+01
              0.164094407759058E+02
             -0.487370563128985E+01
              0.108421559153707E+02
              0.288268250181734E+02
             -0.103472099979187E+03
              0.559282767548069E+02
              0.142479704878029E+02
             -0.170335722519593E+01
             -0.362220902958175E+02
              0.123342422059034E+02
             -0.146966981791202E+02
              0.399099504344825E+02
              0.365531824929807E+02
             -0.308828630404940E+02
             -0.275580712184307E+02
             -0.328805161196473E+02
             -0.352530724623585E+02
              0.136029426522439E+02
             -0.491794194693332E+02
              0.115746345896226E+02
              0.623918038645648E+02
              0.636218983603535E+02
              0.356496313368804E+02
              0.154511326940552E+02
              0.270711193409834E+02
[...]
             -0.707222286482005E+02
             -0.910134881699150E+00
             -0.245511905495784E+01
             -0.884029903009616E+01
             -0.179857629594085E+01
             -0.654006071722896E+02
             -0.211372646044425E+02
              0.538249927357266E+01
              0.897585974606727E+01
              0.469534168817381E+02
             -0.398220306726891E+02
              0.658600079746377E+02
             -0.425950399367266E+02
              0.210511967600439E+02
              0.350859234142673E+02

 BEEF-vdW xc energy contributions
           1 :   -784.086657604657
           2 :    720.375341076199
           3 :   -610.069979228123
           4 :    480.189511388728
           5 :   -358.174297436594
           6 :    263.811612744153
           7 :   -204.757919405700
           8 :    176.524222253880
           9 :   -166.487215241445
          10 :    160.032690264987
          11 :   -146.334054499037
          12 :    121.586530036364
          13 :   -88.8486934406815
          14 :    55.1291252555827
          15 :   -27.4086540639278
          16 :    9.39595060196552
          17 :  -0.263064191601984
          18 :   -4.38873719513231
          19 :    10.0400309867896
          20 :   -20.5554130802407
          21 :    36.5155189891366
          22 :   -55.2358222530505
          23 :    72.2986936343619
          24 :   -83.7617794594532
          25 :    87.9521749940769
          26 :   -86.0635857213736
          27 :    81.3776843920260
          28 :   -77.5712108147691
          29 :    76.9655765714382
          30 :   -79.5521714684152
          31 :   -85.9185228014222
          32 :   -65.8562791775354

     Writing output data file ./pwscf.save/

     General routines

     Parallel routines

   This run was terminated on:  18:58:34  20May2022

   JOB DONE.