     Program PWSCF v.6.7MaX starts on 20May2022 at 16:25:29

     Reading input from cco-ensemble.in
Warning: card &CELL ignored
Warning: card / ignored

     Current dimensions of program PWSCF are:
     Max number of different atomic species (ntypx) = 10
     Max number of k-points (npk) =  40000
     Max angular momentum in pseudopotentials (lmaxx) =  3
     file Pt.pbe-n-kjpaw_psl.1.0.0.UPF: wavefunction(s)  6S 5D renormalized
     file C.pbe-n-kjpaw_psl.1.0.0.UPF: wavefunction(s)  2S 2P renormalized
     file O.pbe-nl-kjpaw_psl.1.0.0.UPF: wavefunction(s)  2S 2P renormalized

     IMPORTANT: XC functional enforced from input :
     Exchange-correlation= BEEF-VDW
                           (   1   4  43  14   2   0   0)
     Any further DFT definition will be discarded
     Please, verify this is what you really want

     Subspace diagonalization in iterative solution of the eigenvalue problem:
     a serial algorithm will be used

     bravais-lattice index     =            0
     lattice parameter (alat)  =      16.0349  a.u.
     unit-cell volume          =   11636.5690 (a.u.)^3
     number of atoms/cell      =           39
     number of atomic types    =            3
     number of electrons       =       374.00
     number of Kohn-Sham states=          224
     kinetic-energy cutoff     =      60.0000  Ry
     charge density cutoff     =     240.0000  Ry
     scf convergence threshold =      1.0E-06
     mixing beta               =       0.7000
     number of iterations used =            8  local-TF  mixing
     Exchange-correlation= BEEF-VDW
                           (   1   4  43  14   2   0   0)

     celldm(1)=  16.034858  celldm(2)=   0.000000  celldm(3)=   0.000000
     celldm(4)=   0.000000  celldm(5)=   0.000000  celldm(6)=   0.000000

     crystal axes: (cart. coord. in units of alat)
               a(1) = (   1.000000   0.000000   0.000000 )
               a(2) = (   0.500000   0.866025   0.000000 )
               a(3) = (   0.000000   0.000000   3.259110 )

     reciprocal axes: (cart. coord. in units 2 pi/alat)
               b(1) = (  1.000000 -0.577350  0.000000 )
               b(2) = (  0.000000  1.154701  0.000000 )
               b(3) = (  0.000000  0.000000  0.306832 )

     PseudoPot. # 1 for Pt read from file:
     /users/bkreitz1/quantum-espresso/potentials/Pt.pbe-n-kjpaw_psl.1.0.0.UPF
     MD5 check sum: 04dc8a03c51ece93fc7b5889c2958091
     Pseudo is Projector augmented-wave + core cor, Zval = 10.0
     Generated using 'atomic' code by A. Dal Corso  v.6.7MaX
     Shape of augmentation charge: PSQ
     Using radial grid of 1277 points,  6 beta functions with:
                l(1) =   0
                l(2) =   0
                l(3) =   1
                l(4) =   1
                l(5) =   2
                l(6) =   2
     Q(r) pseudized with 0 coefficients

     PseudoPot. # 2 for C  read from file:
     /users/bkreitz1/quantum-espresso/potentials/C.pbe-n-kjpaw_psl.1.0.0.UPF
     MD5 check sum: a169b0ebad56f5ec0d79c4633f80bf22
     Pseudo is Projector augmented-wave + core cor, Zval =  4.0
     Generated using 'atomic' code by A. Dal Corso  v.6.7MaX
     Shape of augmentation charge: PSQ
     Using radial grid of 1073 points,  4 beta functions with:
                l(1) =   0
                l(2) =   0
                l(3) =   1
                l(4) =   1
     Q(r) pseudized with 0 coefficients

     PseudoPot. # 3 for O  read from file:
     /users/bkreitz1/quantum-espresso/potentials/O.pbe-nl-kjpaw_psl.1.0.0.UPF
     MD5 check sum: eef08af8b58d9ec80f8fdb78829eb7cf
     Pseudo is Projector augmented-wave + core cor, Zval =  6.0
     Generated using 'atomic' code by A. Dal Corso  v.6.7MaX
     Shape of augmentation charge: PSQ
     Using radial grid of 1095 points,  4 beta functions with:
                l(1) =   0
                l(2) =   0
                l(3) =   1
                l(4) =   1
     Q(r) pseudized with 0 coefficients

     atomic species   valence    mass     pseudopotential
        Pt            10.00   195.08400     Pt( 1.00)
        C              4.00    12.01100     C ( 1.00)
        O              6.00    15.99900     O ( 1.00)

     No symmetry found

   Cartesian axes

     site n.     atom                  positions (alat units)
         1           Pt  tau(   1) = (   0.0000000   0.0000000   1.0017346  )
         2           Pt  tau(   2) = (   0.3333333   0.0000000   1.0017346  )
         3           Pt  tau(   3) = (   0.6666667   0.0000000   1.0017346  )
         4           Pt  tau(   4) = (   0.1666667   0.2886751   1.0017346  )
         5           Pt  tau(   5) = (   0.5000000   0.2886751   1.0017346  )
         6           Pt  tau(   6) = (   0.8333333   0.2886751   1.0017346  )
         7           Pt  tau(   7) = (   0.3333333   0.5773503   1.0017346  )
         8           Pt  tau(   8) = (   0.6666667   0.5773503   1.0017346  )
         9           Pt  tau(   9) = (   1.0000000   0.5773503   1.0017346  )
        10           Pt  tau(  10) = (   0.1666667   0.0962250   1.2739001  )
        11           Pt  tau(  11) = (   0.5000000   0.0962250   1.2739001  )
        12           Pt  tau(  12) = (   0.8333333   0.0962250   1.2739001  )
        13           Pt  tau(  13) = (   0.3333333   0.3849002   1.2739001  )
        14           Pt  tau(  14) = (   0.6666667   0.3849002   1.2739001  )
        15           Pt  tau(  15) = (   1.0000000   0.3849002   1.2739001  )
        16           Pt  tau(  16) = (   0.5000000   0.6735753   1.2739001  )
        17           Pt  tau(  17) = (   0.8333333   0.6735753   1.2739001  )
        18           Pt  tau(  18) = (   1.1666667   0.6735753   1.2739001  )
        19           Pt  tau(  19) = (   0.0008199   0.1935489   1.5448916  )
        20           Pt  tau(  20) = (   0.3332588   0.1923849   1.5446301  )
        21           Pt  tau(  21) = (   0.6660640   0.1935119   1.5446776  )
        22           Pt  tau(  22) = (   0.1660687   0.4798747   1.5448825  )
        23           Pt  tau(  23) = (   0.5006423   0.4800164   1.5446647  )
        24           Pt  tau(  24) = (   0.8333453   0.4810982   1.5426243  )
        25           Pt  tau(  25) = (   0.3333649   0.7697709   1.5398470  )
        26           Pt  tau(  26) = (   0.6680521   0.7698989   1.5448671  )
        27           Pt  tau(  27) = (   0.9986532   0.7698426   1.5448664  )
        28           Pt  tau(  28) = (  -0.0030826  -0.0018410   1.8161428  )
        29           Pt  tau(  29) = (   0.3334645  -0.0071349   1.8291421  )
        30           Pt  tau(  30) = (   0.6699836  -0.0018811   1.8160109  )
        31           Pt  tau(  31) = (   0.1606637   0.2922441   1.8292240  )
        32           Pt  tau(  32) = (   0.5068039   0.2925543   1.8277209  )
        33           Pt  tau(  33) = (   0.8337788   0.2885752   1.8177485  )
        34           Pt  tau(  34) = (   0.3334134   0.5810643   1.8160484  )
        35           Pt  tau(  35) = (   0.6668262   0.5776647   1.8177249  )
        36           Pt  tau(  36) = (   1.0001828   0.5773559   1.8177925  )
        37           C   tau(  37) = (   0.3343741   0.1929312   1.9621981  )
        38           C   tau(  38) = (   0.3393086   0.1957986   2.1204073  )
        39           O   tau(  39) = (   0.3434127   0.1980906   2.2588696  )

     number of k points=    13  Marzari-Vanderbilt smearing, width (Ry)=  0.0200
                       cart. coord. in units 2pi/alat
        k(    1) = (   0.0000000   0.0000000   0.0000000), wk =   0.0800000
        k(    2) = (   0.0000000   0.2309401   0.0000000), wk =   0.1600000
        k(    3) = (   0.0000000   0.4618802   0.0000000), wk =   0.1600000
        k(    4) = (   0.2000000  -0.1154701   0.0000000), wk =   0.1600000
        k(    5) = (   0.2000000   0.1154701   0.0000000), wk =   0.1600000
        k(    6) = (   0.2000000   0.3464102   0.0000000), wk =   0.1600000
        k(    7) = (   0.2000000  -0.5773503   0.0000000), wk =   0.1600000
        k(    8) = (   0.2000000  -0.3464102   0.0000000), wk =   0.1600000
        k(    9) = (   0.4000000  -0.2309401   0.0000000), wk =   0.1600000
        k(   10) = (   0.4000000  -0.0000000   0.0000000), wk =   0.1600000
        k(   11) = (   0.4000000   0.2309401   0.0000000), wk =   0.1600000
        k(   12) = (   0.4000000  -0.6928203   0.0000000), wk =   0.1600000
        k(   13) = (   0.4000000  -0.4618802   0.0000000), wk =   0.1600000

     Check: negative core charge=   -0.000002

     Initial potential from superposition of free atoms

     starting charge  373.99381, renormalised to  374.00000

     negative rho (up, down):  1.302E-02 0.000E+00

     %%%%%%%%%%%%%%%%%%%%%%%%%%%%%%%%%%%%%%%%%%%%%%%%%%%%%%%%%%%%%%%%%%%%%%%%
     %                                                                      %
     % You are using vdW-DF, which was implemented by the Thonhauser group. %
     % Please cite the following two papers that made this development      %
     % possible and the two reviews that describe the various versions:     %
     %                                                                      %
     %   T. Thonhauser et al., PRL 115, 136402 (2015).                      %
     %   T. Thonhauser et al., PRB 76, 125112 (2007).                       %
     %   K. Berland et al., Rep. Prog. Phys. 78, 066501 (2015).             %
     %   D.C. Langreth et al., J. Phys.: Condens. Matter 21, 084203 (2009). %
     %                                                                      %
     %                                                                      %
     % If you are calculating the stress with vdW-DF, please also cite:     %
     %                                                                      %
     %   R. Sabatini et al., J. Phys.: Condens. Matter 24, 424209 (2012).   %
     %                                                                      %
     %%%%%%%%%%%%%%%%%%%%%%%%%%%%%%%%%%%%%%%%%%%%%%%%%%%%%%%%%%%%%%%%%%%%%%%%

     Starting wfcs are  336 randomized atomic wfcs
     Checking if some PAW data can be deallocated...

     Self-consistent Calculation

     iteration #  1     ecut=    60.00 Ry     beta= 0.70
     Davidson diagonalization with overlap
     ethr =  1.00E-02,  avg # of iterations =  2.0

     Threshold (ethr) on eigenvalues was too large:
     Diagonalizing with lowered threshold

     Davidson diagonalization with overlap
     ethr =  7.99E-04,  avg # of iterations =  2.8

[...]

     total energy              =  -27834.29034295 Ry
     estimated scf accuracy    <       3.23420371 Ry

[...]

     iteration #  4     ecut=    60.00 Ry     beta= 0.70
     Davidson diagonalization with overlap
     c_bands:  2 eigenvalues not converged
     ethr =  4.34E-05,  avg # of iterations = 15.6

[...]

     iteration #  6     ecut=    60.00 Ry     beta= 0.70
     Davidson diagonalization with overlap
     c_bands:  1 eigenvalues not converged
     c_bands:  3 eigenvalues not converged
     c_bands:  1 eigenvalues not converged
     ethr =  7.20E-06,  avg # of iterations = 11.9

[...]

     total energy              =  -27834.69908144 Ry
     estimated scf accuracy    <       0.00000332 Ry

     iteration # 18     ecut=    60.00 Ry     beta= 0.70
     Davidson diagonalization with overlap
     ethr =  8.89E-10,  avg # of iterations =  1.5

[...]

     End of self-consistent calculation

          k = 0.0000 0.0000 0.0000 ( 91281 PWs)   bands (ev):

   -22.2745 -13.6092  -7.7427  -7.0942  -6.3571  -5.7482  -5.5023  -5.4985
    -4.7829  -4.7749  -4.7567  -4.7549  -4.7363  -4.7347  -4.7335  -4.6163
    -4.3103  -4.3097  -4.1936  -4.1928  -4.1919  -4.1448  -3.9444  -3.9418
    -3.7626  -3.7588  -3.7570  -3.6341  -3.5743  -3.5742  -3.5235  -3.5230
    -3.5215  -3.4369  -3.3825  -3.3823  -3.3237  -3.3228  -3.3189  -3.2719
    -3.2705  -3.2695  -3.2563  -3.2176  -3.2171  -2.8983  -2.8751  -2.8683
    -2.6873  -2.6840  -2.6830  -2.6699  -2.6366  -2.6038  -2.6033  -2.5234
    -2.4945  -2.4899  -2.4169  -2.4169  -2.2764  -2.2750  -1.9182  -1.9166
    -1.8939  -1.8923  -1.8666  -1.8421  -1.7942  -1.7650  -1.7337  -1.6694
    -1.6677  -1.6671  -1.6552  -1.6551  -1.6302  -1.6275  -1.6081  -1.6054
    -1.6044  -1.5931  -1.5550  -1.5545  -1.4903  -1.4896  -1.4580  -1.4230
    -1.4201  -1.4191  -1.2616  -1.2604  -1.2438  -1.2413  -1.2400  -1.2148
    -1.2063  -1.2035  -1.1311  -1.1303  -1.1225  -1.0673  -1.0661  -1.0173
    -1.0122  -0.9737  -0.9737  -0.9690  -0.8633  -0.8477  -0.8459  -0.8126
    -0.7541  -0.7536  -0.6910  -0.3768  -0.3750  -0.3659  -0.3584  -0.3573
    -0.3153  -0.3133  -0.3131  -0.2840  -0.1726  -0.1721  -0.1486  -0.1483
    -0.1170  -0.0563  -0.0550  -0.0420  -0.0189  -0.0187   0.1253   0.1272
     0.1607   0.1699   0.2105   0.2142   0.3869   0.4146   0.4146   0.4166
     0.4190   0.4191   0.4726   0.4738   0.5977   0.6019   0.6487   0.6488
     0.6621   0.6710   0.6713   0.8016   0.8020   0.8395   0.8488   0.8494
     0.8635   0.8673   0.8794   0.8799   0.9004   0.9018   0.9143   0.9460
     0.9464   0.9921   0.9941   0.9987   1.0506   1.0512   1.0842   1.1030
     1.1033   1.1410   1.1421   1.1747   1.2260   1.2262   1.2368   1.2548
     1.2558   1.2699   1.3101   1.3113   1.3133   1.3509   1.3599   1.3776
     1.3776   1.5201   1.5224   1.6254   1.6267   1.6398   1.6715   1.6717
     1.6954   1.7720   1.7727   2.2219   2.4911   2.5509   2.5603   2.5619
     2.8599   2.8678   4.3991   4.8614   4.8640   4.8814   4.9369   4.9476
     5.8189   5.8798   5.8920   6.3817   6.4797   6.5016   6.5030   6.7407

[...]

          k = 0.4000-0.4619 0.0000 ( 91304 PWs)   bands (ev):

   -22.2745 -13.6083  -7.6518  -6.3624  -6.2330  -6.1085  -5.6320  -5.4863
    -5.4302  -4.9813  -4.8688  -4.4710  -4.4256  -4.2904  -4.2712  -4.1764
    -4.1544  -4.0622  -4.0511  -4.0238  -3.9291  -3.9191  -3.9095  -3.8947
    -3.8627  -3.8382  -3.8063  -3.7487  -3.7150  -3.7010  -3.6835  -3.6609
    -3.5734  -3.5455  -3.4509  -3.4111  -3.3855  -3.3151  -3.2852  -3.2574
    -3.2381  -3.1131  -3.0893  -3.0629  -2.9868  -2.9470  -2.8750  -2.8543
    -2.8325  -2.7841  -2.7065  -2.6820  -2.6014  -2.5349  -2.5239  -2.4942
    -2.4732  -2.4513  -2.4182  -2.3786  -2.3468  -2.3093  -2.2983  -2.2611
    -2.2293  -2.2163  -2.1946  -2.1822  -2.1157  -2.1037  -2.0323  -1.9953
    -1.9588  -1.9524  -1.8563  -1.8293  -1.8104  -1.7836  -1.7586  -1.7360
    -1.7153  -1.6781  -1.6290  -1.6186  -1.5748  -1.5550  -1.5397  -1.5189
    -1.5019  -1.4072  -1.3990  -1.3925  -1.3827  -1.3628  -1.3123  -1.2331
    -1.2160  -1.1952  -1.1452  -1.1399  -1.1117  -1.1090  -1.0755  -1.0713
    -1.0570  -1.0271  -1.0126  -0.9902  -0.9597  -0.9524  -0.9295  -0.9253
    -0.9024  -0.8683  -0.8431  -0.8340  -0.6825  -0.6378  -0.5995  -0.5261
    -0.4843  -0.4607  -0.4453  -0.4230  -0.3944  -0.3829  -0.3648  -0.3356
    -0.2887  -0.2519  -0.2246  -0.2183  -0.1706  -0.1449  -0.0797  -0.0578
    -0.0338   0.0092   0.0533   0.1091   0.1878   0.2067   0.2541   0.2792
     0.2963   0.3040   0.3360   0.3694   0.3796   0.4106   0.4277   0.4678
     0.5026   0.5578   0.5775   0.5896   0.6074   0.6434   0.7029   0.7483
     0.7897   0.8638   0.8973   0.9802   1.0071   1.0343   1.0679   1.1273
     1.1684   1.2015   1.2518   1.2686   1.3296   1.3521   1.3738   1.3882
     1.4210   1.4290   1.4630   1.5208   1.5314   1.5466   1.5793   1.5900
     1.6121   1.6176   1.6932   1.7231   1.7547   1.8105   1.8329   1.8492
     1.8673   1.8951   1.9310   2.0400   2.0830   2.2258   2.7444   2.9930
     3.0173   3.2289   3.2350   3.3260   3.3758   3.4111   3.7430   3.9023
     4.0006   4.1302   4.4496   4.4714   4.5162   4.5753   4.7588   4.8897
     4.9614   5.0076   5.1941   5.3341   5.3663   5.8405   5.9782   6.0303

     the Fermi energy is     1.6236 ev

!    total energy              =  -27834.69908033 Ry

     total all-electron energy =  -1326945.839591 Ry
     estimated scf accuracy    <       0.00000090 Ry
     smearing contrib. (-TS)   =       0.00103909 Ry
     internal energy E=F+TS    =  -27834.70011942 Ry

     The total energy is F=E-TS. E is the sum of the following terms:
     one-electron contribution =  -28374.36306506 Ry
     hartree contribution      =   14487.10001893 Ry
     xc contribution           =    -907.19564724 Ry
     ewald contribution        =   12457.00133153 Ry
     one-center paw contrib.   =  -25497.24275758 Ry

     convergence has been achieved in  18 iterations

[...]

     Forces acting on atoms (cartesian axes, Ry/au):

     atom    1 type  1   force =     0.00104020    0.00061033   -0.00475923
     atom    2 type  1   force =    -0.00000482   -0.00009108   -0.00393425
     atom    3 type  1   force =    -0.00108081    0.00057027   -0.00474295
     atom    4 type  1   force =    -0.00008229    0.00003584   -0.00393631
     atom    5 type  1   force =     0.00004827    0.00002564   -0.00394273
     atom    6 type  1   force =    -0.00000948   -0.00007823   -0.00321500
     atom    7 type  1   force =    -0.00005346   -0.00121209   -0.00475308
     atom    8 type  1   force =    -0.00007082    0.00004339   -0.00321601
     atom    9 type  1   force =     0.00006517    0.00005291   -0.00323631
     atom   10 type  1   force =    -0.00133411   -0.00078790    0.00540118
     atom   11 type  1   force =     0.00126087   -0.00082521    0.00530986
     atom   12 type  1   force =     0.00006118    0.00007093    0.00025425
     atom   13 type  1   force =    -0.00007175    0.00147550    0.00528412
     atom   14 type  1   force =    -0.00118351   -0.00071279    0.00575734
     atom   15 type  1   force =     0.00121697   -0.00072216    0.00602396
     atom   16 type  1   force =     0.00010328    0.00000758    0.00022429
     atom   17 type  1   force =     0.00000875    0.00139896    0.00600112
     atom   18 type  1   force =    -0.00015920   -0.00008434    0.00030493
     atom   19 type  1   force =     0.00014274   -0.00011067    0.00006943
     atom   20 type  1   force =     0.00017991    0.00004199   -0.00025661
     atom   21 type  1   force =    -0.00003793   -0.00011398    0.00011053
     atom   22 type  1   force =     0.00017883    0.00005309    0.00002819
     atom   23 type  1   force =    -0.00010327    0.00001436    0.00014252
     atom   24 type  1   force =     0.00008747    0.00004289   -0.00004781
     atom   25 type  1   force =    -0.00000879    0.00003935   -0.00092159
     atom   26 type  1   force =    -0.00000218    0.00021271    0.00009932
     atom   27 type  1   force =     0.00012953    0.00015930    0.00003584
     atom   28 type  1   force =    -0.00032463   -0.00020220    0.00016896
     atom   29 type  1   force =     0.00005930    0.00055535   -0.00022268
     atom   30 type  1   force =     0.00043915   -0.00018572    0.00013278
     atom   31 type  1   force =     0.00037187   -0.00020695   -0.00032024
     atom   32 type  1   force =    -0.00019846   -0.00016863   -0.00038301
     atom   33 type  1   force =    -0.00010688    0.00012203   -0.00006928
     atom   34 type  1   force =     0.00007552    0.00049610    0.00011853
     atom   35 type  1   force =     0.00012358   -0.00011460   -0.00004486
     atom   36 type  1   force =     0.00001813    0.00007033   -0.00004928
     atom   37 type  2   force =     0.00013430    0.00010922    0.00179004
     atom   38 type  2   force =     0.00014760   -0.00005735    0.03607547
     atom   39 type  3   force =    -0.00106027   -0.00053417   -0.03528145

     Total force =     0.050534     Total SCF correction =     0.002880

[...]

     negative rho (up, down):  1.408E-02 0.000E+00

     negative rho (up, down):  1.408E-02 0.000E+00
 BEEFens 2000 ensemble energies
             -0.606985106464384E+02
             -0.362167253888936E+01
             -0.158568547672911E+02
              0.429725171654126E+02
             -0.221308436559185E+02
             -0.205602854317993E+02
             -0.352218729947788E+02
             -0.865444294334324E+02
             -0.465951711489603E+02
             -0.473636223108012E+02
             -0.369544153868888E+02
              0.225017788643308E+01
              0.406556453109081E+01
              0.766749340830222E+01
              0.265789692981934E+01
              0.475244102097568E+02
             -0.209187238285582E+02
             -0.230984753121801E+02
              0.192930194662940E+02
             -0.112471059995237E+03
              0.536751469989613E+02
             -0.290264870333361E+02
             -0.334615296941952E+01
             -0.114285697503649E+02
             -0.888788567223753E+01
             -0.467648233307531E+01
              0.883505098546763E+02
             -0.186633597796885E+02
             -0.902873606406172E+01
             -0.518670855049672E+02
              0.816845591951596E+02
             -0.188038942783243E+02
             -0.375306778724031E+02
              0.249829119038243E+02
             -0.284583494187910E+01
              0.163749327114065E+02
             -0.487991530760945E+01
              0.108504806211113E+02
              0.287877426059530E+02
             -0.103390458325216E+03
              0.558692238557285E+02
              0.142385956676131E+02
             -0.167196437778279E+01
             -0.362067456570976E+02
              0.123213292910550E+02
             -0.146545766721560E+02
              0.398525812438305E+02
              0.365270025133823E+02
             -0.308761219613023E+02
             -0.275338229674190E+02
             -0.328530333330750E+02
             -0.352178348783699E+02
              0.135777319742764E+02
             -0.491332236103261E+02
              0.115474042939975E+02
              0.623476276193902E+02
              0.635390462992875E+02
              0.356175945725766E+02
              0.154397462024853E+02
              0.270326380687522E+02
[...]
             -0.706481137054473E+02
             -0.935719165551177E+00
             -0.246127234559917E+01
             -0.882676413594766E+01
             -0.179164558080572E+01
             -0.653423453823370E+02
             -0.211429559167385E+02
              0.536811579026717E+01
              0.895512092695978E+01
              0.468971973530658E+02
             -0.397759151749901E+02
              0.658344529156649E+02
             -0.425564897896326E+02
              0.210134491717348E+02
              0.350400807204585E+02

 BEEF-vdW xc energy contributions
           1 :   -783.494326536705
           2 :    719.972343769330
           3 :   -609.927779250001
           4 :    480.234435018388
           5 :   -358.270745236207
           6 :    263.859147188634
           7 :   -204.732669738055
           8 :    176.469154993916
           9 :   -166.472629683521
          10 :    160.111648988303
          11 :   -146.514740077898
          12 :    121.824263977387
          13 :   -89.0613739885131
          14 :    55.2384614154531
          15 :   -27.3826552196235
          16 :    9.26141428559583
          17 :  -8.941451468638206E-002
          18 :   -4.52053323355528
          19 :    10.0744948788443
          20 :   -20.4874240356033
          21 :    36.3880296323368
          22 :   -55.1153423185148
          23 :    72.2424946870223
          24 :   -83.7908479977028
          25 :    88.0437579350811
          26 :   -86.1675591891255
          27 :    81.4426178296899
          28 :   -77.5669103829476
          29 :    76.8992046284610
          30 :   -79.4718297468602
          31 :   -85.8199845173318
          32 :   -65.8110985745627

     Writing output data file ./pwscf.save/

     General routines

     Parallel routines

   This run was terminated on:  19:57: 2  20May2022

   JOB DONE.