     Program PWSCF v.6.7MaX starts on  3Jan2023 at 22:28:24

     Reading input from cco-bi-ensemble.in
Warning: card &CELL ignored
Warning: card / ignored

     Current dimensions of program PWSCF are:
     Max number of different atomic species (ntypx) = 10
     Max number of k-points (npk) =  40000
     Max angular momentum in pseudopotentials (lmaxx) =  3
     file Pt.pbe-n-kjpaw_psl.1.0.0.UPF: wavefunction(s)  6S 5D renormalized
     file C.pbe-n-kjpaw_psl.1.0.0.UPF: wavefunction(s)  2S 2P renormalized
     file O.pbe-nl-kjpaw_psl.1.0.0.UPF: wavefunction(s)  2S 2P renormalized

     IMPORTANT: XC functional enforced from input :
     Exchange-correlation= BEEF-VDW
                           (   1   4  43  14   2   0   0)
     Any further DFT definition will be discarded
     Please, verify this is what you really want

     Subspace diagonalization in iterative solution of the eigenvalue problem:
     a serial algorithm will be used

     bravais-lattice index     =            0
     lattice parameter (alat)  =      16.0349  a.u.
     unit-cell volume          =   11430.8092 (a.u.)^3
     number of atoms/cell      =           39
     number of atomic types    =            3
     number of electrons       =       374.00
     number of Kohn-Sham states=          224
     kinetic-energy cutoff     =      60.0000  Ry
     charge density cutoff     =     240.0000  Ry
     scf convergence threshold =      1.0E-06
     mixing beta               =       0.7000
     number of iterations used =            8  local-TF  mixing
     Exchange-correlation= BEEF-VDW
                           (   1   4  43  14   2   0   0)

     celldm(1)=  16.034858  celldm(2)=   0.000000  celldm(3)=   0.000000
     celldm(4)=   0.000000  celldm(5)=   0.000000  celldm(6)=   0.000000

     crystal axes: (cart. coord. in units of alat)
               a(1) = (   1.000000   0.000000   0.000000 )
               a(2) = (   0.500000   0.866025   0.000000 )
               a(3) = (   0.000000   0.000000   3.201482 )

     reciprocal axes: (cart. coord. in units 2 pi/alat)
               b(1) = (  1.000000 -0.577350  0.000000 )
               b(2) = (  0.000000  1.154701  0.000000 )
               b(3) = (  0.000000  0.000000  0.312355 )

     PseudoPot. # 1 for Pt read from file:
     /users/bkreitz1/quantum-espresso/potentials/Pt.pbe-n-kjpaw_psl.1.0.0.UPF
     MD5 check sum: 04dc8a03c51ece93fc7b5889c2958091
     Pseudo is Projector augmented-wave + core cor, Zval = 10.0
     Generated using 'atomic' code by A. Dal Corso  v.6.7MaX
     Shape of augmentation charge: PSQ
     Using radial grid of 1277 points,  6 beta functions with:
                l(1) =   0
                l(2) =   0
                l(3) =   1
                l(4) =   1
                l(5) =   2
                l(6) =   2
     Q(r) pseudized with 0 coefficients

     PseudoPot. # 2 for C  read from file:
     /users/bkreitz1/quantum-espresso/potentials/C.pbe-n-kjpaw_psl.1.0.0.UPF
     MD5 check sum: a169b0ebad56f5ec0d79c4633f80bf22
     Pseudo is Projector augmented-wave + core cor, Zval =  4.0
     Generated using 'atomic' code by A. Dal Corso  v.6.7MaX
     Shape of augmentation charge: PSQ
     Using radial grid of 1073 points,  4 beta functions with:
                l(1) =   0
                l(2) =   0
                l(3) =   1
                l(4) =   1
     Q(r) pseudized with 0 coefficients

     PseudoPot. # 3 for O  read from file:
     /users/bkreitz1/quantum-espresso/potentials/O.pbe-nl-kjpaw_psl.1.0.0.UPF
     MD5 check sum: eef08af8b58d9ec80f8fdb78829eb7cf
     Pseudo is Projector augmented-wave + core cor, Zval =  6.0
     Generated using 'atomic' code by A. Dal Corso  v.6.7MaX
     Shape of augmentation charge: PSQ
     Using radial grid of 1095 points,  4 beta functions with:
                l(1) =   0
                l(2) =   0
                l(3) =   1
                l(4) =   1
     Q(r) pseudized with 0 coefficients

     atomic species   valence    mass     pseudopotential
        Pt            10.00   195.08400     Pt( 1.00)
        C              4.00    12.01100     C ( 1.00)
        O              6.00    15.99900     O ( 1.00)

     No symmetry found

   Cartesian axes

     site n.     atom                  positions (alat units)
         1           Pt  tau(   1) = (   0.0000000   0.0000000   1.0017346  )
         2           Pt  tau(   2) = (   0.3333333   0.0000000   1.0017346  )
         3           Pt  tau(   3) = (   0.6666667   0.0000000   1.0017346  )
         4           Pt  tau(   4) = (   0.1666667   0.2886751   1.0017346  )
         5           Pt  tau(   5) = (   0.5000000   0.2886751   1.0017346  )
         6           Pt  tau(   6) = (   0.8333333   0.2886751   1.0017346  )
         7           Pt  tau(   7) = (   0.3333333   0.5773503   1.0017346  )
         8           Pt  tau(   8) = (   0.6666667   0.5773503   1.0017346  )
         9           Pt  tau(   9) = (   1.0000000   0.5773503   1.0017346  )
        10           Pt  tau(  10) = (   0.1666667   0.0962250   1.2739001  )
        11           Pt  tau(  11) = (   0.5000000   0.0962250   1.2739001  )
        12           Pt  tau(  12) = (   0.8333333   0.0962250   1.2739001  )
        13           Pt  tau(  13) = (   0.3333333   0.3849002   1.2739001  )
        14           Pt  tau(  14) = (   0.6666667   0.3849002   1.2739001  )
        15           Pt  tau(  15) = (   1.0000000   0.3849002   1.2739001  )
        16           Pt  tau(  16) = (   0.5000000   0.6735753   1.2739001  )
        17           Pt  tau(  17) = (   0.8333333   0.6735753   1.2739001  )
        18           Pt  tau(  18) = (   1.1666667   0.6735753   1.2739001  )
        19           Pt  tau(  19) = (  -0.0014647   0.1951642   1.5457624  )
        20           Pt  tau(  20) = (   0.3347310   0.1951648   1.5457593  )
        21           Pt  tau(  21) = (   0.6666220   0.1934190   1.5463206  )
        22           Pt  tau(  22) = (   0.1666323   0.4823275   1.5426629  )
        23           Pt  tau(  23) = (   0.4997559   0.4813905   1.5444474  )
        24           Pt  tau(  24) = (   0.8334996   0.4813975   1.5444532  )
        25           Pt  tau(  25) = (   0.3314114   0.7716021   1.5468015  )
        26           Pt  tau(  26) = (   0.6666429   0.7715954   1.5393840  )
        27           Pt  tau(  27) = (   1.0018775   0.7716076   1.5468204  )
        28           Pt  tau(  28) = (   0.0039400   0.0003032   1.8165097  )
        29           Pt  tau(  29) = (   0.3292546   0.0003057   1.8165017  )
        30           Pt  tau(  30) = (   0.6665909  -0.0091037   1.8373579  )
        31           Pt  tau(  31) = (   0.1665974   0.2907454   1.8181309  )
        32           Pt  tau(  32) = (   0.4932578   0.2935180   1.8314527  )
        33           Pt  tau(  33) = (   0.8399395   0.2935103   1.8314046  )
        34           Pt  tau(  34) = (   0.3342784   0.5779029   1.8176678  )
        35           Pt  tau(  35) = (   0.6665920   0.5838240   1.8153628  )
        36           Pt  tau(  36) = (   0.9988990   0.5778936   1.8176854  )
        37           C   tau(  37) = (   0.6666096   0.2086353   1.9635793  )
        38           C   tau(  38) = (   0.6666881   0.0871313   2.0749794  )
        39           O   tau(  39) = (   0.6667637   0.0321493   2.2041313  )

     number of k points=    13  Marzari-Vanderbilt smearing, width (Ry)=  0.0200
                       cart. coord. in units 2pi/alat
        k(    1) = (   0.0000000   0.0000000   0.0000000), wk =   0.0800000
        k(    2) = (   0.0000000   0.2309401   0.0000000), wk =   0.1600000
        k(    3) = (   0.0000000   0.4618802   0.0000000), wk =   0.1600000
        k(    4) = (   0.2000000  -0.1154701   0.0000000), wk =   0.1600000
        k(    5) = (   0.2000000   0.1154701   0.0000000), wk =   0.1600000
        k(    6) = (   0.2000000   0.3464102   0.0000000), wk =   0.1600000
        k(    7) = (   0.2000000  -0.5773503   0.0000000), wk =   0.1600000
        k(    8) = (   0.2000000  -0.3464102   0.0000000), wk =   0.1600000
        k(    9) = (   0.4000000  -0.2309401   0.0000000), wk =   0.1600000
        k(   10) = (   0.4000000  -0.0000000   0.0000000), wk =   0.1600000
        k(   11) = (   0.4000000   0.2309401   0.0000000), wk =   0.1600000
        k(   12) = (   0.4000000  -0.6928203   0.0000000), wk =   0.1600000
        k(   13) = (   0.4000000  -0.4618802   0.0000000), wk =   0.1600000

     Check: negative core charge=   -0.000002

     Initial potential from superposition of free atoms

     starting charge  373.99381, renormalised to  374.00000

     negative rho (up, down):  1.279E-02 0.000E+00

     %%%%%%%%%%%%%%%%%%%%%%%%%%%%%%%%%%%%%%%%%%%%%%%%%%%%%%%%%%%%%%%%%%%%%%%%
     %                                                                      %
     % You are using vdW-DF, which was implemented by the Thonhauser group. %
     % Please cite the following two papers that made this development      %
     % possible and the two reviews that describe the various versions:     %
     %                                                                      %
     %   T. Thonhauser et al., PRL 115, 136402 (2015).                      %
     %   T. Thonhauser et al., PRB 76, 125112 (2007).                       %
     %   K. Berland et al., Rep. Prog. Phys. 78, 066501 (2015).             %
     %   D.C. Langreth et al., J. Phys.: Condens. Matter 21, 084203 (2009). %
     %                                                                      %
     %                                                                      %
     % If you are calculating the stress with vdW-DF, please also cite:     %
     %                                                                      %
     %   R. Sabatini et al., J. Phys.: Condens. Matter 24, 424209 (2012).   %
     %                                                                      %
     %%%%%%%%%%%%%%%%%%%%%%%%%%%%%%%%%%%%%%%%%%%%%%%%%%%%%%%%%%%%%%%%%%%%%%%%

     Starting wfcs are  336 randomized atomic wfcs
     Checking if some PAW data can be deallocated...

     Self-consistent Calculation

     iteration #  1     ecut=    60.00 Ry     beta= 0.70
     Davidson diagonalization with overlap
     ethr =  1.00E-02,  avg # of iterations =  2.0

     Threshold (ethr) on eigenvalues was too large:
     Diagonalizing with lowered threshold

     Davidson diagonalization with overlap
     ethr =  7.57E-04,  avg # of iterations =  2.8

[...]

     total energy              =  -27834.27762190 Ry
     estimated scf accuracy    <       3.07063515 Ry

[...]

     iteration #  4     ecut=    60.00 Ry     beta= 0.70
     Davidson diagonalization with overlap
     c_bands:  1 eigenvalues not converged
     ethr =  9.06E-05,  avg # of iterations = 12.2

[...]

     iteration #  7     ecut=    60.00 Ry     beta= 0.70
     Davidson diagonalization with overlap
     c_bands:  2 eigenvalues not converged
     c_bands:  1 eigenvalues not converged
     c_bands:  1 eigenvalues not converged
     c_bands:  1 eigenvalues not converged
     c_bands:  1 eigenvalues not converged
     c_bands:  1 eigenvalues not converged
     ethr =  1.30E-06,  avg # of iterations = 17.6

[...]

     total energy              =  -27834.69211853 Ry
     estimated scf accuracy    <       0.00000126 Ry

     iteration # 16     ecut=    60.00 Ry     beta= 0.70
     Davidson diagonalization with overlap
     ethr =  3.37E-10,  avg # of iterations =  4.1

[...]

     End of self-consistent calculation

          k = 0.0000 0.0000 0.0000 ( 89695 PWs)   bands (ev):

   -21.2488 -13.5999  -7.5663  -7.0684  -5.8709  -5.5861  -5.3232  -5.3213
    -4.7658  -4.7565  -4.7212  -4.7201  -4.7116  -4.6533  -4.6456  -4.5895
    -4.2051  -4.1929  -4.1719  -4.1690  -4.1394  -4.1171  -3.8892  -3.8205
    -3.7521  -3.7446  -3.7334  -3.6121  -3.5442  -3.5404  -3.5069  -3.4871
    -3.4870  -3.4188  -3.3836  -3.3551  -3.3151  -3.3151  -3.3090  -3.2480
    -3.2434  -3.2411  -3.2291  -3.1817  -3.1800  -3.0465  -2.9022  -2.7601
    -2.7117  -2.6705  -2.6509  -2.6506  -2.6134  -2.5909  -2.5879  -2.5410
    -2.4729  -2.4025  -2.3975  -2.3094  -2.2524  -2.1338  -1.9381  -1.9188
    -1.8985  -1.8902  -1.8498  -1.8256  -1.7810  -1.7647  -1.6874  -1.6612
    -1.6519  -1.6506  -1.6364  -1.6286  -1.6204  -1.6104  -1.5887  -1.5818
    -1.5782  -1.5418  -1.5340  -1.5276  -1.4928  -1.4834  -1.4408  -1.4200
    -1.4095  -1.3770  -1.2713  -1.2610  -1.2423  -1.2365  -1.2146  -1.1884
    -1.1835  -1.1810  -1.1491  -1.1253  -1.1208  -1.0874  -1.0794  -1.0015
    -0.9999  -0.9603  -0.9602  -0.9567  -0.8552  -0.8433  -0.8335  -0.8001
    -0.7841  -0.7446  -0.6350  -0.4380  -0.3955  -0.3864  -0.3766  -0.3598
    -0.3143  -0.3103  -0.3028  -0.2852  -0.1842  -0.1618  -0.1364  -0.1282
    -0.0982  -0.0704  -0.0469  -0.0396  -0.0238  -0.0148   0.0757   0.1066
     0.1697   0.1801   0.1861   0.2399   0.3601   0.3715   0.4106   0.4204
     0.4243   0.4367   0.4822   0.4883   0.5501   0.5698   0.6496   0.6527
     0.6737   0.6891   0.6891   0.7863   0.8085   0.8392   0.8508   0.8517
     0.8755   0.8759   0.8917   0.8926   0.9172   0.9175   0.9231   0.9329
     0.9410   0.9912   0.9957   1.0035   1.0522   1.0527   1.1000   1.1121
     1.1124   1.1535   1.1547   1.1873   1.2386   1.2391   1.2511   1.2643
     1.2648   1.2904   1.3028   1.3256   1.3426   1.3745   1.3833   1.3939
     1.3989   1.5277   1.5306   1.6387   1.6441   1.6597   1.6806   1.6823
     1.7090   1.7969   1.9577   2.2373   2.5039   2.5528   2.5685   2.5833
     3.0699   3.0781   4.4098   4.8377   4.8763   4.9009   4.9272   5.1254
     5.7443   5.8448   6.3021   6.4766   6.4906   6.5281   6.5444   6.5941

[...]

          k = 0.4000-0.4619 0.0000 ( 89706 PWs)   bands (ev):

   -21.2488 -13.5983  -7.4722  -6.2159  -6.1436  -5.6481  -5.5477  -5.3627
    -5.2566  -4.8963  -4.7968  -4.4059  -4.3777  -4.2657  -4.2310  -4.1220
    -4.1031  -4.0351  -4.0035  -3.9838  -3.9075  -3.8982  -3.8745  -3.8533
    -3.8300  -3.8250  -3.7449  -3.7125  -3.6870  -3.6678  -3.6479  -3.6301
    -3.5471  -3.4924  -3.4271  -3.4099  -3.3780  -3.2978  -3.2623  -3.2386
    -3.2184  -3.1170  -3.0556  -3.0415  -2.9453  -2.9073  -2.8546  -2.8366
    -2.7922  -2.7469  -2.6964  -2.6655  -2.5932  -2.5383  -2.5155  -2.4897
    -2.4622  -2.4256  -2.3648  -2.3587  -2.3170  -2.3000  -2.2722  -2.2484
    -2.2168  -2.1981  -2.1705  -2.1650  -2.0969  -2.0801  -2.0258  -1.9767
    -1.9588  -1.9292  -1.8373  -1.8196  -1.7892  -1.7835  -1.7479  -1.7329
    -1.7213  -1.6843  -1.6417  -1.6021  -1.5832  -1.5465  -1.5405  -1.5045
    -1.4460  -1.3954  -1.3930  -1.3821  -1.3729  -1.3592  -1.3214  -1.2259
    -1.2113  -1.1726  -1.1368  -1.1308  -1.1016  -1.0957  -1.0714  -1.0598
    -1.0402  -1.0157  -1.0065  -0.9746  -0.9570  -0.9329  -0.9115  -0.9057
    -0.8947  -0.8619  -0.8399  -0.8267  -0.6916  -0.6320  -0.6140  -0.5365
    -0.4848  -0.4559  -0.4464  -0.4060  -0.3971  -0.3647  -0.3462  -0.3093
    -0.2681  -0.2479  -0.2220  -0.2153  -0.1477  -0.1326  -0.0711  -0.0492
    -0.0300   0.0099   0.0594   0.1037   0.1678   0.2018   0.2636   0.2743
     0.2993   0.3133   0.3408   0.3718   0.3960   0.4143   0.4393   0.4628
     0.5106   0.5644   0.5862   0.5892   0.6105   0.6548   0.6951   0.7297
     0.7880   0.8682   0.9010   0.9616   1.0237   1.0484   1.0795   1.1371
     1.1796   1.2054   1.2618   1.2824   1.3417   1.3496   1.3784   1.3986
     1.4286   1.4431   1.4761   1.5302   1.5397   1.5538   1.5884   1.5939
     1.6203   1.6360   1.7046   1.7295   1.7775   1.8259   1.8508   1.8647
     1.8790   1.9156   1.9542   2.0905   2.1893   2.3238   2.7803   3.0010
     3.0383   3.2203   3.2375   3.3199   3.4090   3.5088   3.7707   3.9050
     4.0352   4.1424   4.3936   4.5005   4.5577   4.6314   4.8015   4.8686
     4.9120   5.0108   5.2297   5.2957   5.4456   5.7650   5.9031   6.0442

     the Fermi energy is     1.6358 ev

!    total energy              =  -27834.69211854 Ry

     total all-electron energy =  -1326945.832629 Ry
     estimated scf accuracy    <       0.00000012 Ry
     smearing contrib. (-TS)   =       0.00217010 Ry
     internal energy E=F+TS    =  -27834.69428864 Ry

     The total energy is F=E-TS. E is the sum of the following terms:
     one-electron contribution =  -27432.70116012 Ry
     hartree contribution      =   14016.61237940 Ry
     xc contribution           =    -907.20568464 Ry
     ewald contribution        =   11985.84782149 Ry
     one-center paw contrib.   =  -25497.24764478 Ry

     convergence has been achieved in  16 iterations

[...]

     Forces acting on atoms (cartesian axes, Ry/au):

     atom    1 type  1   force =    -0.00114230    0.00042644   -0.00469540
     atom    2 type  1   force =     0.00112831    0.00044780   -0.00469034
     atom    3 type  1   force =    -0.00000701   -0.00023363   -0.00384490
     atom    4 type  1   force =     0.00000349   -0.00079714   -0.00315709
     atom    5 type  1   force =     0.00013375    0.00011562   -0.00401013
     atom    6 type  1   force =    -0.00016290    0.00010557   -0.00403069
     atom    7 type  1   force =     0.00017194   -0.00004885   -0.00333525
     atom    8 type  1   force =    -0.00002515   -0.00171359   -0.00574017
     atom    9 type  1   force =    -0.00017309   -0.00004536   -0.00334208
     atom   10 type  1   force =    -0.00000563    0.00115537    0.00077097
     atom   11 type  1   force =    -0.00084094   -0.00056805    0.00848369
     atom   12 type  1   force =     0.00077746   -0.00057535    0.00846616
     atom   13 type  1   force =     0.00109537   -0.00029974    0.00690639
     atom   14 type  1   force =    -0.00004424    0.00144248    0.00469232
     atom   15 type  1   force =    -0.00112677   -0.00029453    0.00691579
     atom   16 type  1   force =    -0.00084947    0.00122574   -0.00150156
     atom   17 type  1   force =     0.00082081    0.00125209   -0.00148298
     atom   18 type  1   force =    -0.00002298    0.00291554    0.00834766
     atom   19 type  1   force =     0.00008999   -0.00004817   -0.00008499
     atom   20 type  1   force =    -0.00008158   -0.00003633   -0.00005528
     atom   21 type  1   force =    -0.00000101    0.00024010    0.00001630
     atom   22 type  1   force =    -0.00000198   -0.00029244   -0.00004005
     atom   23 type  1   force =    -0.00047569   -0.00015308   -0.00001129
     atom   24 type  1   force =     0.00047917   -0.00015097   -0.00003795
     atom   25 type  1   force =    -0.00040451    0.00003258   -0.00001817
     atom   26 type  1   force =    -0.00001842   -0.00026672   -0.00066649
     atom   27 type  1   force =     0.00035536    0.00002252   -0.00003280
     atom   28 type  1   force =    -0.00016885   -0.00004223    0.00008090
     atom   29 type  1   force =     0.00016673   -0.00003101    0.00008785
     atom   30 type  1   force =    -0.00000419   -0.00088236    0.00111042
     atom   31 type  1   force =     0.00001869   -0.00036336   -0.00000021
     atom   32 type  1   force =     0.00023197    0.00006091   -0.00000128
     atom   33 type  1   force =    -0.00028918    0.00005663    0.00003077
     atom   34 type  1   force =    -0.00047065   -0.00015269    0.00002788
     atom   35 type  1   force =    -0.00001463   -0.00071987   -0.00005295
     atom   36 type  1   force =     0.00049311   -0.00012865    0.00000617
     atom   37 type  2   force =     0.00076721   -0.00126363    0.00023899
     atom   38 type  2   force =    -0.00037422   -0.01282657    0.02309800
     atom   39 type  3   force =    -0.00002795    0.01243493   -0.02844820

     Total force =     0.040856     Total SCF correction =     0.001118

[...]

     negative rho (up, down):  1.375E-02 0.000E+00

     negative rho (up, down):  1.375E-02 0.000E+00
 BEEFens 2000 ensemble energies
             -0.606926358356137E+02
             -0.362425344680094E+01
             -0.158592662956952E+02
              0.429747657470642E+02
             -0.221292699297472E+02
             -0.205621271101684E+02
             -0.352191299901070E+02
             -0.865426452245670E+02
             -0.465979923991461E+02
             -0.473697831815502E+02
             -0.369533219026829E+02
              0.224433179390795E+01
              0.406408211802867E+01
              0.767065232313740E+01
              0.266099714051705E+01
              0.475215297023209E+02
             -0.209232507748913E+02
             -0.231048669688701E+02
              0.192879910670780E+02
             -0.112466269750476E+03
              0.536746377155490E+02
             -0.290268949586977E+02
             -0.334969803614466E+01
             -0.114308488502044E+02
             -0.888987879462729E+01
             -0.468172815561229E+01
              0.883473856542536E+02
             -0.186586494305153E+02
             -0.903316495691024E+01
             -0.518631805243884E+02
              0.816879940006029E+02
             -0.188104592047958E+02
             -0.375328991478161E+02
              0.249868708450282E+02
             -0.284793744402521E+01
              0.163689742123269E+02
             -0.488008234471766E+01
              0.108529999633603E+02
              0.287767314578520E+02
             -0.103393139464378E+03
              0.558682181060033E+02
              0.142356800926812E+02
             -0.166778168638160E+01
             -0.362103540684455E+02
              0.123197283378877E+02
             -0.146539038959669E+02
              0.398521349720625E+02
              0.365256456216463E+02
             -0.308786876496606E+02
             -0.275331006085356E+02
             -0.328503807572237E+02
             -0.352124607146332E+02
              0.135665984209784E+02
             -0.491352629289909E+02
              0.115480962878140E+02
              0.623411041947175E+02
              0.635336339987665E+02
              0.356164193104911E+02
              0.154425704745465E+02
              0.270279852561674E+02
[...]
             -0.706435803990523E+02
             -0.939764759022523E+00
             -0.245649385934149E+01
             -0.882826361189996E+01
             -0.179138287663625E+01
             -0.653401825396825E+02
             -0.211502114151965E+02
              0.536358073909119E+01
              0.894800520147840E+01
              0.468954092260942E+02
             -0.397745068992737E+02
              0.658363913250283E+02
             -0.425575955847589E+02
              0.210093291920788E+02
              0.350388017829866E+02

 BEEF-vdW xc energy contributions
           1 :   -783.509993299042
           2 :    720.021622461951
           3 :   -610.012683556187
           4 :    480.339082702034
           5 :   -358.373592234015
           6 :    263.938976787820
           7 :   -204.774748395207
           8 :    176.466559973679
           9 :   -166.425177425888
          10 :    160.025493153339
          11 :   -146.402223992062
          12 :    121.704330218486
          13 :   -88.9583695753432
          14 :    55.1745937460274
          15 :   -27.3683088301984
          16 :    9.29050768778393
          17 :  -0.141098242330827
          18 :   -4.47383242594492
          19 :    10.0534475150967
          20 :   -20.4944408137476
          21 :    36.4070917026052
          22 :   -55.1217354603015
          23 :    72.2153545641080
          24 :   -83.7230779031811
          25 :    87.9439288261990
          26 :   -86.0522531039668
          27 :    81.3288656430706
          28 :   -77.4699476017985
          29 :    76.8293350497001
          30 :   -79.4312040145721
          31 :   -85.8226834867609
          32 :   -65.8226209699250

     Writing output data file ./pwscf.save/

     General routines

     Parallel routines

   This run was terminated on:   1:53:28   4Jan2023

   JOB DONE.