     Program PWSCF v.6.7MaX starts on 26Sep2022 at 21: 8:17

     Reading input from ch-ensemble.in
Warning: card &CELL ignored
Warning: card / ignored

     Current dimensions of program PWSCF are:
     Max number of different atomic species (ntypx) = 10
     Max number of k-points (npk) =  40000
     Max angular momentum in pseudopotentials (lmaxx) =  3
     file Pt.pbe-n-kjpaw_psl.1.0.0.UPF: wavefunction(s)  6S 5D renormalized
     file C.pbe-n-kjpaw_psl.1.0.0.UPF: wavefunction(s)  2S 2P renormalized
     file H.pbe-kjpaw_psl.1.0.0.UPF: wavefunction(s)  1S renormalized

     IMPORTANT: XC functional enforced from input :
     Exchange-correlation= BEEF-VDW
                           (   1   4  43  14   2   0   0)
     Any further DFT definition will be discarded
     Please, verify this is what you really want

     Subspace diagonalization in iterative solution of the eigenvalue problem:
     a serial algorithm will be used

     bravais-lattice index     =            0
     lattice parameter (alat)  =      16.0349  a.u.
     unit-cell volume          =   11036.8291 (a.u.)^3
     number of atoms/cell      =           38
     number of atomic types    =            3
     number of electrons       =       365.00
     number of Kohn-Sham states=          220
     kinetic-energy cutoff     =      60.0000  Ry
     charge density cutoff     =     240.0000  Ry
     scf convergence threshold =      1.0E-06
     mixing beta               =       0.7000
     number of iterations used =            8  local-TF  mixing
     Exchange-correlation= BEEF-VDW
                           (   1   4  43  14   2   0   0)

     celldm(1)=  16.034858  celldm(2)=   0.000000  celldm(3)=   0.000000
     celldm(4)=   0.000000  celldm(5)=   0.000000  celldm(6)=   0.000000

     crystal axes: (cart. coord. in units of alat)
               a(1) = (   1.000000   0.000000   0.000000 )
               a(2) = (   0.500000   0.866025   0.000000 )
               a(3) = (   0.000000   0.000000   3.091138 )

     reciprocal axes: (cart. coord. in units 2 pi/alat)
               b(1) = (  1.000000 -0.577350  0.000000 )
               b(2) = (  0.000000  1.154701  0.000000 )
               b(3) = (  0.000000  0.000000  0.323505 )

     PseudoPot. # 1 for Pt read from file:
     /users/bkreitz1/quantum-espresso/potentials/Pt.pbe-n-kjpaw_psl.1.0.0.UPF
     MD5 check sum: 04dc8a03c51ece93fc7b5889c2958091
     Pseudo is Projector augmented-wave + core cor, Zval = 10.0
     Generated using 'atomic' code by A. Dal Corso  v.6.7MaX
     Shape of augmentation charge: PSQ
     Using radial grid of 1277 points,  6 beta functions with:
                l(1) =   0
                l(2) =   0
                l(3) =   1
                l(4) =   1
                l(5) =   2
                l(6) =   2
     Q(r) pseudized with 0 coefficients

     PseudoPot. # 2 for C  read from file:
     /users/bkreitz1/quantum-espresso/potentials/C.pbe-n-kjpaw_psl.1.0.0.UPF
     MD5 check sum: a169b0ebad56f5ec0d79c4633f80bf22
     Pseudo is Projector augmented-wave + core cor, Zval =  4.0
     Generated using 'atomic' code by A. Dal Corso  v.6.7MaX
     Shape of augmentation charge: PSQ
     Using radial grid of 1073 points,  4 beta functions with:
                l(1) =   0
                l(2) =   0
                l(3) =   1
                l(4) =   1
     Q(r) pseudized with 0 coefficients

     PseudoPot. # 3 for H  read from file:
     /users/bkreitz1/quantum-espresso/potentials/H.pbe-kjpaw_psl.1.0.0.UPF
     MD5 check sum: ae98473e6dc62675f0d0baffdab24f65
     Pseudo is Projector augmented-wave, Zval =  1.0
     Generated using 'atomic' code by A. Dal Corso  v.6.7MaX
     Shape of augmentation charge: PSQ
     Using radial grid of  929 points,  2 beta functions with:
                l(1) =   0
                l(2) =   0
     Q(r) pseudized with 0 coefficients

     atomic species   valence    mass     pseudopotential
        Pt            10.00   195.08400     Pt( 1.00)
        C              4.00    12.01100     C ( 1.00)
        H              1.00     1.00800     H ( 1.00)

     No symmetry found

   Cartesian axes

     site n.     atom                  positions (alat units)
         1           Pt  tau(   1) = (   0.0000000   0.0000000   1.0017346  )
         2           Pt  tau(   2) = (   0.3333333   0.0000000   1.0017346  )
         3           Pt  tau(   3) = (   0.6666667   0.0000000   1.0017346  )
         4           Pt  tau(   4) = (   0.1666667   0.2886751   1.0017346  )
         5           Pt  tau(   5) = (   0.5000000   0.2886751   1.0017346  )
         6           Pt  tau(   6) = (   0.8333333   0.2886751   1.0017346  )
         7           Pt  tau(   7) = (   0.3333333   0.5773503   1.0017346  )
         8           Pt  tau(   8) = (   0.6666667   0.5773503   1.0017346  )
         9           Pt  tau(   9) = (   1.0000000   0.5773503   1.0017346  )
        10           Pt  tau(  10) = (   0.1666667   0.0962250   1.2739001  )
        11           Pt  tau(  11) = (   0.5000000   0.0962250   1.2739001  )
        12           Pt  tau(  12) = (   0.8333333   0.0962250   1.2739001  )
        13           Pt  tau(  13) = (   0.3333333   0.3849002   1.2739001  )
        14           Pt  tau(  14) = (   0.6666667   0.3849002   1.2739001  )
        15           Pt  tau(  15) = (   1.0000000   0.3849002   1.2739001  )
        16           Pt  tau(  16) = (   0.5000000   0.6735753   1.2739001  )
        17           Pt  tau(  17) = (   0.8333333   0.6735753   1.2739001  )
        18           Pt  tau(  18) = (   1.1666667   0.6735753   1.2739001  )
        19           Pt  tau(  19) = (   0.0008186   0.1919474   1.5463096  )
        20           Pt  tau(  20) = (   0.3324788   0.1919534   1.5463410  )
        21           Pt  tau(  21) = (   0.6666532   0.1923290   1.5424430  )
        22           Pt  tau(  22) = (   0.1666449   0.4794399   1.5448648  )
        23           Pt  tau(  23) = (   0.4998900   0.4811699   1.5424474  )
        24           Pt  tau(  24) = (   0.8334239   0.4811745   1.5424505  )
        25           Pt  tau(  25) = (   0.3347344   0.7706037   1.5448656  )
        26           Pt  tau(  26) = (   0.6666457   0.7707552   1.5463086  )
        27           Pt  tau(  27) = (   0.9985349   0.7706163   1.5448649  )
        28           Pt  tau(  28) = (  -0.0047599  -0.0027565   1.8339498  )
        29           Pt  tau(  29) = (   0.3378870  -0.0027134   1.8340480  )
        30           Pt  tau(  30) = (   0.6665918  -0.0001044   1.8170154  )
        31           Pt  tau(  31) = (   0.1666006   0.2939524   1.8340586  )
        32           Pt  tau(  32) = (   0.5031603   0.2904896   1.8165886  )
        33           Pt  tau(  33) = (   0.8300709   0.2904928   1.8165719  )
        34           Pt  tau(  34) = (   0.3332138   0.5773233   1.8170199  )
        35           Pt  tau(  35) = (   0.6666187   0.5736031   1.8165722  )
        36           Pt  tau(  36) = (   1.0000078   0.5773458   1.8170364  )
        37           C   tau(  37) = (   0.1664730   0.0960882   1.9614857  )
        38           H   tau(  38) = (   0.1663966   0.0960324   2.0915451  )

     number of k points=    13  Marzari-Vanderbilt smearing, width (Ry)=  0.0200
                       cart. coord. in units 2pi/alat
        k(    1) = (   0.0000000   0.0000000   0.0000000), wk =   0.0800000
        k(    2) = (   0.0000000   0.2309401   0.0000000), wk =   0.1600000
        k(    3) = (   0.0000000   0.4618802   0.0000000), wk =   0.1600000
        k(    4) = (   0.2000000  -0.1154701   0.0000000), wk =   0.1600000
        k(    5) = (   0.2000000   0.1154701   0.0000000), wk =   0.1600000
        k(    6) = (   0.2000000   0.3464102   0.0000000), wk =   0.1600000
        k(    7) = (   0.2000000  -0.5773503   0.0000000), wk =   0.1600000
        k(    8) = (   0.2000000  -0.3464102   0.0000000), wk =   0.1600000
        k(    9) = (   0.4000000  -0.2309401   0.0000000), wk =   0.1600000
        k(   10) = (   0.4000000  -0.0000000   0.0000000), wk =   0.1600000
        k(   11) = (   0.4000000   0.2309401   0.0000000), wk =   0.1600000
        k(   12) = (   0.4000000  -0.6928203   0.0000000), wk =   0.1600000
        k(   13) = (   0.4000000  -0.4618802   0.0000000), wk =   0.1600000

     Initial potential from superposition of free atoms

     starting charge  364.99384, renormalised to  365.00000

     negative rho (up, down):  1.222E-02 0.000E+00

     %%%%%%%%%%%%%%%%%%%%%%%%%%%%%%%%%%%%%%%%%%%%%%%%%%%%%%%%%%%%%%%%%%%%%%%%
     %                                                                      %
     % You are using vdW-DF, which was implemented by the Thonhauser group. %
     % Please cite the following two papers that made this development      %
     % possible and the two reviews that describe the various versions:     %
     %                                                                      %
     %   T. Thonhauser et al., PRL 115, 136402 (2015).                      %
     %   T. Thonhauser et al., PRB 76, 125112 (2007).                       %
     %   K. Berland et al., Rep. Prog. Phys. 78, 066501 (2015).             %
     %   D.C. Langreth et al., J. Phys.: Condens. Matter 21, 084203 (2009). %
     %                                                                      %
     %                                                                      %
     % If you are calculating the stress with vdW-DF, please also cite:     %
     %                                                                      %
     %   R. Sabatini et al., J. Phys.: Condens. Matter 24, 424209 (2012).   %
     %                                                                      %
     %%%%%%%%%%%%%%%%%%%%%%%%%%%%%%%%%%%%%%%%%%%%%%%%%%%%%%%%%%%%%%%%%%%%%%%%

     Starting wfcs are  329 randomized atomic wfcs
     Checking if some PAW data can be deallocated...

     Self-consistent Calculation

     iteration #  1     ecut=    60.00 Ry     beta= 0.70
     Davidson diagonalization with overlap
     ethr =  1.00E-02,  avg # of iterations =  2.0

     Threshold (ethr) on eigenvalues was too large:
     Diagonalizing with lowered threshold

     Davidson diagonalization with overlap
     ethr =  5.27E-04,  avg # of iterations =  5.3

[...]

     total energy              =  -27774.16937587 Ry
     estimated scf accuracy    <       2.19939723 Ry

[...]

     iteration #  5     ecut=    60.00 Ry     beta= 0.70
     Davidson diagonalization with overlap
     c_bands:  1 eigenvalues not converged
     ethr =  2.72E-05,  avg # of iterations =  8.3

[...]

     iteration #  7     ecut=    60.00 Ry     beta= 0.70
     Davidson diagonalization with overlap
     c_bands:  1 eigenvalues not converged
     c_bands:  1 eigenvalues not converged
     c_bands:  1 eigenvalues not converged
     ethr =  1.86E-06,  avg # of iterations = 15.1

[...]

     total energy              =  -27774.49417611 Ry
     estimated scf accuracy    <       0.00000274 Ry

     iteration # 17     ecut=    60.00 Ry     beta= 0.70
     Davidson diagonalization with overlap
     ethr =  7.51E-10,  avg # of iterations =  5.3

[...]

     End of self-consistent calculation

          k = 0.0000 0.0000 0.0000 ( 86595 PWs)   bands (ev):

   -10.5005  -6.8022  -5.6146  -5.1466  -4.4786  -4.4783  -4.4413  -4.4081
    -4.3834  -4.3833  -4.3682  -4.2035  -4.0709  -4.0708  -3.8622  -3.8459
    -3.8458  -3.7802  -3.6978  -3.6976  -3.4056  -3.4055  -3.3946  -3.2787
    -3.2239  -3.2238  -3.1803  -3.1802  -3.1783  -3.0675  -3.0569  -3.0566
    -2.9769  -2.9768  -2.9596  -2.9155  -2.8949  -2.8948  -2.8894  -2.8595
    -2.8595  -2.5285  -2.4181  -2.4168  -2.3227  -2.3225  -2.3150  -2.2881
    -2.2496  -2.2495  -2.2367  -2.1782  -2.1781  -2.0794  -2.0793  -2.0469
    -1.9427  -1.9425  -1.5959  -1.5956  -1.5368  -1.5144  -1.5143  -1.4702
    -1.4423  -1.3588  -1.3587  -1.3261  -1.3187  -1.3186  -1.3142  -1.3001
    -1.2798  -1.2650  -1.2650  -1.2261  -1.2260  -1.2161  -1.2030  -1.2029
    -1.1360  -1.1355  -1.1166  -1.1020  -1.1013  -1.1009  -0.9220  -0.9062
    -0.9061  -0.8719  -0.8719  -0.8696  -0.8546  -0.8545  -0.7916  -0.7915
    -0.7781  -0.6857  -0.6857  -0.6454  -0.6413  -0.6155  -0.5403  -0.5402
    -0.5060  -0.5055  -0.4934  -0.4786  -0.4195  -0.4187  -0.3503  -0.0559
    -0.0556  -0.0247   0.0195   0.0196   0.0354   0.0357   0.0384   0.0583
     0.1648   0.1648   0.2183   0.2184   0.2264   0.2627   0.2628   0.3085
     0.3256   0.3694   0.4773   0.4774   0.5121   0.5127   0.5661   0.5663
     0.7161   0.7530   0.7531   0.7774   0.8085   0.8087   0.8509   0.8513
     0.9204   0.9205   0.9665   0.9969   1.0148   1.0212   1.0214   1.1219
     1.1222   1.1552   1.1898   1.1898   1.2092   1.2093   1.2130   1.2206
     1.2390   1.2409   1.2410   1.3139   1.3141   1.3316   1.3318   1.3372
     1.4082   1.4083   1.4217   1.4256   1.4257   1.4689   1.4689   1.5156
     1.5650   1.5679   1.5680   1.5745   1.5746   1.6261   1.6503   1.6503
     1.6879   1.6880   1.7135   1.7224   1.7731   1.8608   1.8610   1.9700
     1.9781   1.9782   2.0151   2.0152   2.0349   2.5384   2.5387   2.6317
     2.8529   2.8880   2.8880   2.9200   4.0102   4.0104   4.8801   5.1959
     5.1960   5.2131   5.7091   5.7098   6.3000   6.8047   6.8091   6.8093
     6.8415   6.8452   6.9716   6.9717

[...]

          k = 0.4000-0.4619 0.0000 ( 86630 PWs)   bands (ev):

   -10.4904  -5.8727  -5.8374  -5.2816  -5.1669  -4.7081  -4.5177  -4.1789
    -4.0706  -4.0084  -3.9318  -3.8583  -3.7960  -3.7819  -3.7368  -3.6737
    -3.6247  -3.5770  -3.5728  -3.5463  -3.5138  -3.4855  -3.4602  -3.4015
    -3.3537  -3.3450  -3.3301  -3.3074  -3.2274  -3.2037  -3.1004  -3.0479
    -3.0207  -2.9702  -2.9436  -2.9071  -2.8901  -2.7692  -2.7292  -2.6913
    -2.6062  -2.6021  -2.5284  -2.5011  -2.4689  -2.3975  -2.3557  -2.3065
    -2.2690  -2.2098  -2.1745  -2.1467  -2.1193  -2.0847  -2.0501  -2.0169
    -2.0052  -1.9473  -1.9421  -1.9084  -1.8938  -1.8707  -1.8508  -1.8223
    -1.7881  -1.7615  -1.7017  -1.6586  -1.6271  -1.5951  -1.5021  -1.4708
    -1.4657  -1.4345  -1.4053  -1.3867  -1.3576  -1.3225  -1.2694  -1.2642
    -1.2530  -1.2153  -1.1826  -1.1421  -1.0888  -1.0641  -1.0488  -1.0273
    -1.0117  -0.9387  -0.9113  -0.8712  -0.8643  -0.8377  -0.8040  -0.7828
    -0.7612  -0.7593  -0.7364  -0.7219  -0.6890  -0.6689  -0.6533  -0.6386
    -0.6057  -0.5958  -0.5906  -0.5802  -0.5460  -0.5319  -0.5000  -0.3426
    -0.3074  -0.2649  -0.2335  -0.1934  -0.1315  -0.1075  -0.0806  -0.0643
    -0.0434  -0.0082   0.0172   0.0228   0.0473   0.0826   0.1201   0.1635
     0.1822   0.2534   0.2719   0.2782   0.3427   0.3489   0.4451   0.4862
     0.5057   0.5313   0.5819   0.6144   0.6321   0.6544   0.6867   0.7007
     0.7299   0.7407   0.8095   0.8253   0.8510   0.8562   0.9135   0.9327
     0.9736   0.9767   1.0398   1.0964   1.1823   1.2101   1.2700   1.3302
     1.3762   1.3948   1.4411   1.4579   1.5248   1.5258   1.5766   1.6226
     1.6607   1.6835   1.7139   1.7363   1.7504   1.8001   1.8128   1.8658
     1.8811   1.8876   1.9055   1.9456   1.9544   1.9666   2.0342   2.0596
     2.1118   2.1511   2.1814   2.1843   2.2350   2.2656   2.3064   2.4196
     2.8428   3.0696   3.2424   3.3463   3.4186   3.5896   3.6457   3.6583
     3.8519   4.0429   4.1941   4.3713   4.4772   4.4947   4.8300   4.8412
     5.0440   5.0692   5.1805   5.2378   5.3570   5.5032   5.6873   5.7361
     6.0320   6.3305   6.4134   6.4793

     the Fermi energy is     1.9563 ev

!    total energy              =  -27774.49417659 Ry

     total all-electron energy =  -1326719.023690 Ry
     estimated scf accuracy    <       0.00000085 Ry
     smearing contrib. (-TS)   =       0.00481727 Ry
     internal energy E=F+TS    =  -27774.49899387 Ry

     The total energy is F=E-TS. E is the sum of the following terms:
     one-electron contribution =  -25400.10455511 Ry
     hartree contribution      =   13001.04157533 Ry
     xc contribution           =    -895.49631080 Ry
     ewald contribution        =   11000.59630110 Ry
     one-center paw contrib.   =  -25480.53600439 Ry

     convergence has been achieved in  17 iterations

[...]

     Forces acting on atoms (cartesian axes, Ry/au):

     atom    1 type  1   force =     0.00005302    0.00002842   -0.00325048
     atom    2 type  1   force =    -0.00008513    0.00005416   -0.00324149
     atom    3 type  1   force =     0.00000061    0.00093894   -0.00405393
     atom    4 type  1   force =     0.00000318   -0.00011912   -0.00324615
     atom    5 type  1   force =     0.00035153    0.00018571   -0.00402535
     atom    6 type  1   force =    -0.00038762    0.00017406   -0.00403253
     atom    7 type  1   force =     0.00081671   -0.00044885   -0.00406748
     atom    8 type  1   force =    -0.00002821   -0.00041083   -0.00403856
     atom    9 type  1   force =    -0.00080793   -0.00044568   -0.00407682
     atom   10 type  1   force =    -0.00001406   -0.00001888    0.01069900
     atom   11 type  1   force =    -0.00007058   -0.00163674    0.00419840
     atom   12 type  1   force =     0.00002748   -0.00167085    0.00416273
     atom   13 type  1   force =    -0.00142630    0.00073076    0.00419263
     atom   14 type  1   force =    -0.00003569   -0.00002776    0.00166356
     atom   15 type  1   force =     0.00141323    0.00070792    0.00415544
     atom   16 type  1   force =    -0.00142373    0.00087583    0.00415507
     atom   17 type  1   force =     0.00135633    0.00089112    0.00415815
     atom   18 type  1   force =    -0.00000982    0.00002805   -0.00754596
     atom   19 type  1   force =     0.00017140   -0.00014539    0.00010390
     atom   20 type  1   force =    -0.00019671   -0.00013824    0.00006850
     atom   21 type  1   force =    -0.00006644   -0.00058183   -0.00024112
     atom   22 type  1   force =     0.00003018   -0.00041872    0.00074591
     atom   23 type  1   force =    -0.00050579    0.00021087   -0.00023748
     atom   24 type  1   force =     0.00039423    0.00022396   -0.00025272
     atom   25 type  1   force =     0.00031619    0.00021108    0.00064624
     atom   26 type  1   force =    -0.00002521    0.00023564    0.00010059
     atom   27 type  1   force =    -0.00035328    0.00027024    0.00071589
     atom   28 type  1   force =     0.00031397    0.00019029    0.00007302
     atom   29 type  1   force =    -0.00033827    0.00018766    0.00002873
     atom   30 type  1   force =    -0.00004130    0.00000861    0.00035744
     atom   31 type  1   force =    -0.00001340   -0.00039358    0.00003338
     atom   32 type  1   force =    -0.00057791   -0.00033526    0.00064036
     atom   33 type  1   force =     0.00052103   -0.00033487    0.00069350
     atom   34 type  1   force =    -0.00002156   -0.00004405    0.00037148
     atom   35 type  1   force =    -0.00003377    0.00060065    0.00070241
     atom   36 type  1   force =    -0.00000760   -0.00001667    0.00035464
     atom   37 type  2   force =     0.00067329    0.00040969    0.01147151
     atom   38 type  3   force =     0.00002796    0.00002365   -0.01218243

     Total force =     0.016949     Total SCF correction =     0.000879

[...]

     negative rho (up, down):  1.304E-02 0.000E+00

     negative rho (up, down):  1.304E-02 0.000E+00
 BEEFens 2000 ensemble energies
             -0.598416545653505E+02
             -0.357870052263203E+01
             -0.156660483018968E+02
              0.423871451042278E+02
             -0.218559495937244E+02
             -0.203303052234066E+02
             -0.346132150893258E+02
             -0.852564549098240E+02
             -0.460751277176491E+02
             -0.468326686784931E+02
             -0.364604836129390E+02
              0.217521975612497E+01
              0.400839699038013E+01
              0.770613380652344E+01
              0.260667535002264E+01
              0.468926047995942E+02
             -0.206444576335766E+02
             -0.229114520268754E+02
              0.189986012819767E+02
             -0.110972074876014E+03
              0.529082334687432E+02
             -0.287565228727241E+02
             -0.327520094994675E+01
             -0.113074318773566E+02
             -0.887987678235345E+01
             -0.458384696127527E+01
              0.871655225790298E+02
             -0.183925495941505E+02
             -0.889860655893017E+01
             -0.511119124820314E+02
              0.807124940417477E+02
             -0.186926684451562E+02
             -0.369798466988498E+02
              0.246977494874237E+02
             -0.281427224891166E+01
              0.160272419113155E+02
             -0.489087462090544E+01
              0.108207552806608E+02
              0.283314471290177E+02
             -0.102018815432966E+03
              0.551465768220124E+02
              0.140695654814060E+02
             -0.154957639222579E+01
             -0.357658484188464E+02
              0.121703541405504E+02
             -0.144390752684196E+02
              0.392017503226776E+02
              0.360414812882824E+02
             -0.305917078741026E+02
             -0.271059849397192E+02
             -0.324528492758596E+02
             -0.347341213161305E+02
              0.133355656901028E+02
             -0.484178787899729E+02
              0.113432556714559E+02
              0.615102298928483E+02
              0.625568375867186E+02
              0.351851441374235E+02
              0.152024141485920E+02
              0.266214425725227E+02
[...]
             -0.696445100069604E+02
             -0.959535653324224E+00
             -0.247934419167708E+01
             -0.868327150149116E+01
             -0.185018410022712E+01
             -0.644591521363755E+02
             -0.209748009700253E+02
              0.521391832503952E+01
              0.879909823943376E+01
              0.462363192664243E+02
             -0.392180410224361E+02
              0.650720659097641E+02
             -0.420339616963047E+02
              0.206758707585648E+02
              0.344672193638859E+02

 BEEF-vdW xc energy contributions
           1 :   -773.611441856458
           2 :    711.437200438742
           3 :   -603.471471682543
           4 :    475.927529880379
           5 :   -355.781031924045
           6 :    262.686535113223
           7 :   -204.371394164980
           8 :    176.508946736787
           9 :   -166.647818460273
          10 :    160.300052068798
          11 :   -146.692376881191
          12 :    122.010143482494
          13 :   -89.2830680800378
          14 :    55.5138980963646
          15 :   -27.7059683077096
          16 :    9.59936206361613
          17 :  -0.391207693757565
          18 :   -4.30547422195616
          19 :    9.97198692360246
          20 :   -20.4793216158999
          21 :    36.4147759774893
          22 :   -55.0996651648475
          23 :    72.1192768911347
          24 :   -83.5314190143416
          25 :    87.6662756670170
          26 :   -85.7257280579570
          27 :    80.9993027926459
          28 :   -77.1710077390771
          29 :    76.5740232298214
          30 :   -79.2172690671877
          31 :   -84.6340823242891
          32 :   -65.0148420159031

     Writing output data file ./pwscf.save/

     General routines

     Parallel routines

   This run was terminated on:   0:29:13  27Sep2022

   JOB DONE.