     Program PWSCF v.6.7MaX starts on 26Sep2022 at 21: 8:12

     Reading input from ch2-ensemble.in
Warning: card &CELL ignored
Warning: card / ignored

     Current dimensions of program PWSCF are:
     Max number of different atomic species (ntypx) = 10
     Max number of k-points (npk) =  40000
     Max angular momentum in pseudopotentials (lmaxx) =  3
     file Pt.pbe-n-kjpaw_psl.1.0.0.UPF: wavefunction(s)  6S 5D renormalized
     file C.pbe-n-kjpaw_psl.1.0.0.UPF: wavefunction(s)  2S 2P renormalized
     file H.pbe-kjpaw_psl.1.0.0.UPF: wavefunction(s)  1S renormalized

     IMPORTANT: XC functional enforced from input :
     Exchange-correlation= BEEF-VDW
                           (   1   4  43  14   2   0   0)
     Any further DFT definition will be discarded
     Please, verify this is what you really want

     Subspace diagonalization in iterative solution of the eigenvalue problem:
     a serial algorithm will be used

     bravais-lattice index     =            0
     lattice parameter (alat)  =      16.0349  a.u.
     unit-cell volume          =   11010.2244 (a.u.)^3
     number of atoms/cell      =           39
     number of atomic types    =            3
     number of electrons       =       366.00
     number of Kohn-Sham states=          220
     kinetic-energy cutoff     =      60.0000  Ry
     charge density cutoff     =     240.0000  Ry
     scf convergence threshold =      1.0E-06
     mixing beta               =       0.7000
     number of iterations used =            8  local-TF  mixing
     Exchange-correlation= BEEF-VDW
                           (   1   4  43  14   2   0   0)

     celldm(1)=  16.034858  celldm(2)=   0.000000  celldm(3)=   0.000000
     celldm(4)=   0.000000  celldm(5)=   0.000000  celldm(6)=   0.000000

     crystal axes: (cart. coord. in units of alat)
               a(1) = (   1.000000   0.000000   0.000000 )
               a(2) = (   0.500000   0.866025   0.000000 )
               a(3) = (   0.000000   0.000000   3.083686 )

     reciprocal axes: (cart. coord. in units 2 pi/alat)
               b(1) = (  1.000000 -0.577350  0.000000 )
               b(2) = (  0.000000  1.154701  0.000000 )
               b(3) = (  0.000000  0.000000  0.324287 )

     PseudoPot. # 1 for Pt read from file:
     /users/bkreitz1/quantum-espresso/potentials/Pt.pbe-n-kjpaw_psl.1.0.0.UPF
     MD5 check sum: 04dc8a03c51ece93fc7b5889c2958091
     Pseudo is Projector augmented-wave + core cor, Zval = 10.0
     Generated using 'atomic' code by A. Dal Corso  v.6.7MaX
     Shape of augmentation charge: PSQ
     Using radial grid of 1277 points,  6 beta functions with:
                l(1) =   0
                l(2) =   0
                l(3) =   1
                l(4) =   1
                l(5) =   2
                l(6) =   2
     Q(r) pseudized with 0 coefficients

     PseudoPot. # 2 for C  read from file:
     /users/bkreitz1/quantum-espresso/potentials/C.pbe-n-kjpaw_psl.1.0.0.UPF
     MD5 check sum: a169b0ebad56f5ec0d79c4633f80bf22
     Pseudo is Projector augmented-wave + core cor, Zval =  4.0
     Generated using 'atomic' code by A. Dal Corso  v.6.7MaX
     Shape of augmentation charge: PSQ
     Using radial grid of 1073 points,  4 beta functions with:
                l(1) =   0
                l(2) =   0
                l(3) =   1
                l(4) =   1
     Q(r) pseudized with 0 coefficients

     PseudoPot. # 3 for H  read from file:
     /users/bkreitz1/quantum-espresso/potentials/H.pbe-kjpaw_psl.1.0.0.UPF
     MD5 check sum: ae98473e6dc62675f0d0baffdab24f65
     Pseudo is Projector augmented-wave, Zval =  1.0
     Generated using 'atomic' code by A. Dal Corso  v.6.7MaX
     Shape of augmentation charge: PSQ
     Using radial grid of  929 points,  2 beta functions with:
                l(1) =   0
                l(2) =   0
     Q(r) pseudized with 0 coefficients

     atomic species   valence    mass     pseudopotential
        Pt            10.00   195.08400     Pt( 1.00)
        C              4.00    12.01100     C ( 1.00)
        H              1.00     1.00800     H ( 1.00)

     No symmetry found

   Cartesian axes

     site n.     atom                  positions (alat units)
         1           Pt  tau(   1) = (   0.0000000   0.0000000   1.0017346  )
         2           Pt  tau(   2) = (   0.3333333   0.0000000   1.0017346  )
         3           Pt  tau(   3) = (   0.6666667   0.0000000   1.0017346  )
         4           Pt  tau(   4) = (   0.1666667   0.2886751   1.0017346  )
         5           Pt  tau(   5) = (   0.5000000   0.2886751   1.0017346  )
         6           Pt  tau(   6) = (   0.8333333   0.2886751   1.0017346  )
         7           Pt  tau(   7) = (   0.3333333   0.5773503   1.0017346  )
         8           Pt  tau(   8) = (   0.6666667   0.5773503   1.0017346  )
         9           Pt  tau(   9) = (   1.0000000   0.5773503   1.0017346  )
        10           Pt  tau(  10) = (   0.1666667   0.0962250   1.2739001  )
        11           Pt  tau(  11) = (   0.5000000   0.0962250   1.2739001  )
        12           Pt  tau(  12) = (   0.8333333   0.0962250   1.2739001  )
        13           Pt  tau(  13) = (   0.3333333   0.3849002   1.2739001  )
        14           Pt  tau(  14) = (   0.6666667   0.3849002   1.2739001  )
        15           Pt  tau(  15) = (   1.0000000   0.3849002   1.2739001  )
        16           Pt  tau(  16) = (   0.5000000   0.6735753   1.2739001  )
        17           Pt  tau(  17) = (   0.8333333   0.6735753   1.2739001  )
        18           Pt  tau(  18) = (   1.1666667   0.6735753   1.2739001  )
        19           Pt  tau(  19) = (  -0.0005985   0.1916615   1.5416862  )
        20           Pt  tau(  20) = (   0.3342648   0.1916957   1.5463434  )
        21           Pt  tau(  21) = (   0.6654541   0.1931338   1.5447529  )
        22           Pt  tau(  22) = (   0.1668719   0.4817498   1.5416861  )
        23           Pt  tau(  23) = (   0.5010896   0.4779075   1.5482259  )
        24           Pt  tau(  24) = (   0.8332837   0.4809604   1.5434141  )
        25           Pt  tau(  25) = (   0.3354555   0.7683922   1.5398420  )
        26           Pt  tau(  26) = (   0.6698628   0.7701618   1.5482493  )
        27           Pt  tau(  27) = (   0.9986026   0.7701969   1.5447684  )
        28           Pt  tau(  28) = (   0.0003087  -0.0003171   1.8175309  )
        29           Pt  tau(  29) = (   0.3329147   0.0025857   1.8386049  )
        30           Pt  tau(  30) = (   0.6731514  -0.0041560   1.8104231  )
        31           Pt  tau(  31) = (   0.1597960   0.2922440   1.8125060  )
        32           Pt  tau(  32) = (   0.4972091   0.2872156   1.8386794  )
        33           Pt  tau(  33) = (   0.8316968   0.2889393   1.8175478  )
        34           Pt  tau(  34) = (   0.3333601   0.5766904   1.8175626  )
        35           Pt  tau(  35) = (   0.6660347   0.5773575   1.8200682  )
        36           Pt  tau(  36) = (   0.9985583   0.5780532   1.8175354  )
        37           C   tau(  37) = (   0.4229863   0.1404575   2.0163647  )
        38           H   tau(  38) = (   0.3312186   0.1932143   2.0895133  )
        39           H   tau(  39) = (   0.5168594   0.0861025   2.0865455  )

     number of k points=    13  Marzari-Vanderbilt smearing, width (Ry)=  0.0200
                       cart. coord. in units 2pi/alat
        k(    1) = (   0.0000000   0.0000000   0.0000000), wk =   0.0800000
        k(    2) = (   0.0000000   0.2309401   0.0000000), wk =   0.1600000
        k(    3) = (   0.0000000   0.4618802   0.0000000), wk =   0.1600000
        k(    4) = (   0.2000000  -0.1154701   0.0000000), wk =   0.1600000
        k(    5) = (   0.2000000   0.1154701   0.0000000), wk =   0.1600000
        k(    6) = (   0.2000000   0.3464102   0.0000000), wk =   0.1600000
        k(    7) = (   0.2000000  -0.5773503   0.0000000), wk =   0.1600000
        k(    8) = (   0.2000000  -0.3464102   0.0000000), wk =   0.1600000
        k(    9) = (   0.4000000  -0.2309401   0.0000000), wk =   0.1600000
        k(   10) = (   0.4000000  -0.0000000   0.0000000), wk =   0.1600000
        k(   11) = (   0.4000000   0.2309401   0.0000000), wk =   0.1600000
        k(   12) = (   0.4000000  -0.6928203   0.0000000), wk =   0.1600000
        k(   13) = (   0.4000000  -0.4618802   0.0000000), wk =   0.1600000

     Initial potential from superposition of free atoms

     starting charge  365.99383, renormalised to  366.00000

     negative rho (up, down):  1.203E-02 0.000E+00

     %%%%%%%%%%%%%%%%%%%%%%%%%%%%%%%%%%%%%%%%%%%%%%%%%%%%%%%%%%%%%%%%%%%%%%%%
     %                                                                      %
     % You are using vdW-DF, which was implemented by the Thonhauser group. %
     % Please cite the following two papers that made this development      %
     % possible and the two reviews that describe the various versions:     %
     %                                                                      %
     %   T. Thonhauser et al., PRL 115, 136402 (2015).                      %
     %   T. Thonhauser et al., PRB 76, 125112 (2007).                       %
     %   K. Berland et al., Rep. Prog. Phys. 78, 066501 (2015).             %
     %   D.C. Langreth et al., J. Phys.: Condens. Matter 21, 084203 (2009). %
     %                                                                      %
     %                                                                      %
     % If you are calculating the stress with vdW-DF, please also cite:     %
     %                                                                      %
     %   R. Sabatini et al., J. Phys.: Condens. Matter 24, 424209 (2012).   %
     %                                                                      %
     %%%%%%%%%%%%%%%%%%%%%%%%%%%%%%%%%%%%%%%%%%%%%%%%%%%%%%%%%%%%%%%%%%%%%%%%

     Starting wfcs are  330 randomized atomic wfcs
     Checking if some PAW data can be deallocated...

     Self-consistent Calculation

     iteration #  1     ecut=    60.00 Ry     beta= 0.70
     Davidson diagonalization with overlap
     ethr =  1.00E-02,  avg # of iterations =  2.0

     Threshold (ethr) on eigenvalues was too large:
     Diagonalizing with lowered threshold

     Davidson diagonalization with overlap
     ethr =  6.05E-04,  avg # of iterations =  3.8

[...]

     total energy              =  -27775.38641663 Ry
     estimated scf accuracy    <       2.46892523 Ry

[...]

     iteration #  4     ecut=    60.00 Ry     beta= 0.70
     Davidson diagonalization with overlap
     c_bands:  2 eigenvalues not converged
     ethr =  7.99E-05,  avg # of iterations = 12.7

[...]

     iteration #  7     ecut=    60.00 Ry     beta= 0.70
     Davidson diagonalization with overlap
     c_bands:  1 eigenvalues not converged
     ethr =  1.26E-06,  avg # of iterations = 10.2

[...]

     total energy              =  -27775.69729594 Ry
     estimated scf accuracy    <       0.00000258 Ry

     iteration # 17     ecut=    60.00 Ry     beta= 0.70
     Davidson diagonalization with overlap
     ethr =  7.06E-10,  avg # of iterations =  4.0

[...]

     End of self-consistent calculation

          k = 0.0000 0.0000 0.0000 ( 86449 PWs)   bands (ev):

   -10.3754  -6.7764  -5.5128  -4.5797  -4.5162  -4.3979  -4.3884  -4.3685
    -4.3670  -4.3527  -4.3289  -4.2987  -3.9832  -3.8445  -3.8246  -3.8098
    -3.7966  -3.7852  -3.7047  -3.3753  -3.3703  -3.3519  -3.3506  -3.3100
    -3.2221  -3.1575  -3.1383  -3.1308  -3.1304  -3.0905  -3.0176  -2.9318
    -2.9290  -2.9180  -2.9155  -2.8906  -2.8672  -2.8628  -2.8590  -2.8481
    -2.8175  -2.8066  -2.4946  -2.4080  -2.3005  -2.2929  -2.2701  -2.2664
    -2.2293  -2.2059  -2.2053  -2.1814  -2.0731  -2.0644  -2.0236  -2.0213
    -1.9719  -1.6347  -1.5397  -1.4809  -1.4785  -1.4441  -1.4221  -1.4104
    -1.3961  -1.3150  -1.2943  -1.2889  -1.2863  -1.2794  -1.2778  -1.2606
    -1.2479  -1.2260  -1.2109  -1.2050  -1.1940  -1.1872  -1.1772  -1.1556
    -1.0949  -1.0745  -1.0627  -1.0534  -1.0279  -0.9216  -0.8911  -0.8811
    -0.8769  -0.8434  -0.8415  -0.8166  -0.8027  -0.7914  -0.7342  -0.7160
    -0.6804  -0.6697  -0.6371  -0.6357  -0.5967  -0.5954  -0.5408  -0.5256
    -0.4709  -0.4348  -0.4341  -0.4265  -0.3847  -0.3572  -0.1859  -0.0103
    -0.0024   0.0134   0.0453   0.0662   0.0769   0.0915   0.1193   0.1266
     0.1753   0.2216   0.2297   0.2318   0.2779   0.3263   0.3296   0.3533
     0.3990   0.4426   0.4567   0.5430   0.5524   0.5545   0.5674   0.5966
     0.7510   0.7601   0.7907   0.7978   0.8161   0.8202   0.8615   0.8700
     0.9161   1.0427   1.0470   1.0500   1.0691   1.0828   1.1579   1.1658
     1.1822   1.2192   1.2266   1.2402   1.2443   1.2511   1.2552   1.2740
     1.2835   1.2956   1.3026   1.3408   1.3466   1.3743   1.3893   1.4104
     1.4181   1.4670   1.4727   1.4784   1.4851   1.5020   1.5108   1.5435
     1.5536   1.6070   1.6121   1.6136   1.6387   1.6464   1.6503   1.6816
     1.7052   1.7245   1.7360   1.7582   1.7657   1.7749   1.9034   1.9359
     2.0190   2.0257   2.0483   2.0724   2.0762   2.0797   2.4032   2.5786
     2.8849   2.9263   2.9541   2.9584   3.0369   3.8616   4.6309   5.1931
     5.2530   5.2827   5.3003   5.8423   6.1265   6.6836   6.8463   6.8496
     6.8676   6.8880   6.8941   6.9046

[...]

          k = 0.4000-0.4619 0.0000 ( 86404 PWs)   bands (ev):

   -10.3729  -5.8426  -5.7883  -5.2093  -4.6670  -4.6611  -4.3771  -4.1676
    -4.0865  -3.9655  -3.8905  -3.8776  -3.7715  -3.7475  -3.6644  -3.6404
    -3.5742  -3.5403  -3.5170  -3.5012  -3.4890  -3.4570  -3.3857  -3.3484
    -3.3210  -3.3130  -3.2880  -3.2769  -3.1722  -3.0856  -3.0579  -2.9605
    -2.9410  -2.9349  -2.9015  -2.8898  -2.8114  -2.7666  -2.7068  -2.6985
    -2.6411  -2.5099  -2.4787  -2.4386  -2.3913  -2.3080  -2.2873  -2.2727
    -2.1840  -2.1441  -2.1321  -2.0942  -2.0701  -2.0229  -1.9904  -1.9706
    -1.9311  -1.8912  -1.8707  -1.8514  -1.8380  -1.8228  -1.8162  -1.7786
    -1.7109  -1.6903  -1.6359  -1.6056  -1.5888  -1.5266  -1.4884  -1.4362
    -1.4275  -1.3743  -1.3498  -1.3415  -1.3275  -1.2724  -1.2529  -1.2388
    -1.2106  -1.1724  -1.1546  -1.1383  -1.0568  -1.0201  -1.0067  -1.0002
    -0.9786  -0.9208  -0.8764  -0.8264  -0.8068  -0.7868  -0.7743  -0.7447
    -0.7299  -0.7115  -0.6786  -0.6702  -0.6572  -0.6433  -0.6170  -0.6013
    -0.5707  -0.5662  -0.5469  -0.5393  -0.5173  -0.4827  -0.4777  -0.3993
    -0.2903  -0.2350  -0.1817  -0.1663  -0.1012  -0.0731  -0.0556  -0.0210
     0.0144   0.0371   0.0492   0.0717   0.1144   0.1292   0.1618   0.1708
     0.2259   0.2492   0.3107   0.3156   0.3412   0.3825   0.4543   0.5173
     0.5402   0.5876   0.6410   0.6555   0.6810   0.6934   0.7297   0.7505
     0.7579   0.7821   0.8072   0.8398   0.8936   0.9267   0.9599   0.9719
     1.0018   1.0214   1.0352   1.1523   1.1579   1.2167   1.2592   1.3291
     1.3666   1.4372   1.4489   1.5400   1.5475   1.5709   1.5770   1.6632
     1.6950   1.7343   1.7597   1.7684   1.7984   1.8094   1.8577   1.8668
     1.9289   1.9466   1.9706   1.9833   2.0009   2.0044   2.0068   2.0882
     2.1715   2.1951   2.2017   2.2167   2.2296   2.2855   2.2965   2.3889
     2.4764   3.0575   3.3404   3.3813   3.4022   3.5389   3.6364   3.7448
     3.8054   3.8314   4.2612   4.3777   4.4932   4.5486   4.8451   4.8868
     4.9570   4.9863   5.1964   5.2801   5.3068   5.3651   5.5660   5.8130
     5.8390   6.2817   6.4263   6.4873

     the Fermi energy is     2.0004 ev

!    total energy              =  -27775.69729543 Ry

     total all-electron energy =  -1326720.226805 Ry
     estimated scf accuracy    <       0.00000067 Ry
     smearing contrib. (-TS)   =       0.00281500 Ry
     internal energy E=F+TS    =  -27775.70011043 Ry

     The total energy is F=E-TS. E is the sum of the following terms:
     one-electron contribution =  -25246.55584218 Ry
     hartree contribution      =   12925.36595836 Ry
     xc contribution           =    -896.23891950 Ry
     ewald contribution        =   10922.23971379 Ry
     one-center paw contrib.   =  -25480.51102089 Ry

     convergence has been achieved in  17 iterations

[...]

     Forces acting on atoms (cartesian axes, Ry/au):

     atom    1 type  1   force =     0.00074634    0.00190036   -0.00540683
     atom    2 type  1   force =    -0.00047390   -0.00009692   -0.00308125
     atom    3 type  1   force =     0.00042830   -0.00022170   -0.00341010
     atom    4 type  1   force =    -0.00029518    0.00021907   -0.00415529
     atom    5 type  1   force =    -0.00012554    0.00051584   -0.00308647
     atom    6 type  1   force =     0.00056271   -0.00030042   -0.00370558
     atom    7 type  1   force =    -0.00125850   -0.00154846   -0.00541376
     atom    8 type  1   force =    -0.00050999    0.00033865   -0.00244864
     atom    9 type  1   force =     0.00058000   -0.00026150   -0.00373191
     atom   10 type  1   force =     0.00092857   -0.00310063    0.00574503
     atom   11 type  1   force =    -0.00015296    0.00001039    0.00908751
     atom   12 type  1   force =    -0.00001314   -0.00008614   -0.00112125
     atom   13 type  1   force =     0.00309369    0.00064791    0.00578000
     atom   14 type  1   force =    -0.00189396    0.00103082    0.00927793
     atom   15 type  1   force =    -0.00033970    0.00013499    0.00181229
     atom   16 type  1   force =     0.00172227   -0.00103526   -0.00195104
     atom   17 type  1   force =    -0.00190465    0.00101972    0.00928069
     atom   18 type  1   force =    -0.00000231   -0.00004027   -0.00108590
     atom   19 type  1   force =     0.00002458   -0.00005850   -0.00019010
     atom   20 type  1   force =    -0.00004748    0.00014577    0.00029802
     atom   21 type  1   force =     0.00000389   -0.00002402    0.00008177
     atom   22 type  1   force =     0.00014009    0.00004013   -0.00016203
     atom   23 type  1   force =    -0.00003919   -0.00016987    0.00020047
     atom   24 type  1   force =    -0.00008521    0.00000847    0.00016431
     atom   25 type  1   force =    -0.00010046    0.00006284   -0.00009882
     atom   26 type  1   force =     0.00002570    0.00011596    0.00009160
     atom   27 type  1   force =     0.00016455    0.00006196   -0.00005411
     atom   28 type  1   force =     0.00006976   -0.00006262   -0.00023152
     atom   29 type  1   force =     0.00075673    0.00029251    0.00082135
     atom   30 type  1   force =    -0.00001780    0.00011777    0.00020980
     atom   31 type  1   force =    -0.00002996    0.00009635   -0.00000841
     atom   32 type  1   force =     0.00029947   -0.00047720    0.00043524
     atom   33 type  1   force =     0.00027684    0.00005861   -0.00019577
     atom   34 type  1   force =     0.00024180   -0.00006423   -0.00027393
     atom   35 type  1   force =    -0.00003537   -0.00006422   -0.00041761
     atom   36 type  1   force =     0.00021002   -0.00030513   -0.00014261
     atom   37 type  2   force =     0.00097779   -0.00141824    0.00225628
     atom   38 type  3   force =     0.00056980   -0.00021733   -0.00023636
     atom   39 type  3   force =    -0.00449762    0.00273454   -0.00493300

     Total force =     0.007968     Total SCF correction =     0.001520
     SCF correction compared to forces is large: reduce conv_thr to get better values

[...]

     negative rho (up, down):  1.283E-02 0.000E+00

     negative rho (up, down):  1.283E-02 0.000E+00
 BEEFens 2000 ensemble energies
             -0.599111580197610E+02
             -0.357826850778167E+01
             -0.156722505536402E+02
              0.424264407547854E+02
             -0.218791280827166E+02
             -0.203389948652568E+02
             -0.346677491223418E+02
             -0.853477410503999E+02
             -0.460892852984441E+02
             -0.468440086604833E+02
             -0.364978392226319E+02
              0.219890556570218E+01
              0.401507380396220E+01
              0.768773420341302E+01
              0.260687409299322E+01
              0.469383004892751E+02
             -0.206495294282901E+02
             -0.228959357321272E+02
              0.190276977321365E+02
             -0.111077322074002E+03
              0.529597266918966E+02
             -0.287675369639998E+02
             -0.327602278219102E+01
             -0.113120973482987E+02
             -0.886216490548566E+01
             -0.456746417756403E+01
              0.872435862481606E+02
             -0.184423316541966E+02
             -0.889459766420305E+01
             -0.511688191404162E+02
              0.807469722951764E+02
             -0.186712336047654E+02
             -0.370092525033115E+02
              0.246990090999512E+02
             -0.281655887721809E+01
              0.160704646052027E+02
             -0.488297706705731E+01
              0.108127625534856E+02
              0.283973186153327E+02
             -0.102089939597364E+03
              0.552017821156589E+02
              0.140885433485439E+02
             -0.158157049638464E+01
             -0.357807989035842E+02
              0.121845426552161E+02
             -0.144725692700583E+02
              0.392484759119109E+02
              0.360693267159551E+02
             -0.305924819878088E+02
             -0.271309406532703E+02
             -0.324876787444542E+02
             -0.347796388064905E+02
              0.133853329139740E+02
             -0.484581466168102E+02
              0.113651339544489E+02
              0.615770452832572E+02
              0.626430513807637E+02
              0.352176765642428E+02
              0.152057270392022E+02
              0.266679587735521E+02
[...]
             -0.697227874851590E+02
             -0.934126116295943E+00
             -0.248842331967653E+01
             -0.869356093177203E+01
             -0.185422816007360E+01
             -0.645151698094023E+02
             -0.209566066794154E+02
              0.523670904724530E+01
              0.883424325281385E+01
              0.462891999476027E+02
             -0.392650556842472E+02
              0.650977672143213E+02
             -0.420675330101876E+02
              0.207172348946009E+02
              0.345091075345275E+02

 BEEF-vdW xc energy contributions
           1 :   -774.181923211559
           2 :    711.813122287015
           3 :   -603.574770656409
           4 :    475.807701851049
           5 :   -355.554877924307
           6 :    262.475371023890
           7 :   -204.262752312905
           8 :    176.538949448047
           9 :   -166.802234261877
          10 :    160.533340759539
          11 :   -146.949438612108
          12 :    122.242372861730
          13 :   -89.4604994125044
          14 :    55.6299472181147
          15 :   -27.7729674796573
          16 :    9.63880751363479
          17 :  -0.423347356516160
          18 :   -4.26855355310363
          19 :    9.93044845503141
          20 :   -20.4460838271456
          21 :    36.4112433674143
          22 :   -55.1471406128882
          23 :    72.2293197066750
          24 :   -83.7013183739947
          25 :    87.8810854842493
          26 :   -85.9607255924669
          27 :    81.2263685325509
          28 :   -77.3707763639262
          29 :    76.7404803411606
          30 :   -79.3480742097140
          31 :   -84.7306629927712
          32 :   -65.0566912800741

     Writing output data file ./pwscf.save/

     General routines

     Parallel routines

   This run was terminated on:   0:31:11  27Sep2022

   JOB DONE.