     Program PWSCF v.6.7MaX starts on  3Jan2023 at 22:41:56

     Reading input from ch2coh-mono-ensemble.in
Warning: card &CELL ignored
Warning: card / ignored

     Current dimensions of program PWSCF are:
     Max number of different atomic species (ntypx) = 10
     Max number of k-points (npk) =  40000
     Max angular momentum in pseudopotentials (lmaxx) =  3
     file Pt.pbe-n-kjpaw_psl.1.0.0.UPF: wavefunction(s)  6S 5D renormalized
     file C.pbe-n-kjpaw_psl.1.0.0.UPF: wavefunction(s)  2S 2P renormalized
     file O.pbe-nl-kjpaw_psl.1.0.0.UPF: wavefunction(s)  2S 2P renormalized
     file H.pbe-kjpaw_psl.1.0.0.UPF: wavefunction(s)  1S renormalized

     IMPORTANT: XC functional enforced from input :
     Exchange-correlation= BEEF-VDW
                           (   1   4  43  14   2   0   0)
     Any further DFT definition will be discarded
     Please, verify this is what you really want

     Subspace diagonalization in iterative solution of the eigenvalue problem:
     a serial algorithm will be used

     bravais-lattice index     =            0
     lattice parameter (alat)  =      16.0349  a.u.
     unit-cell volume          =   11744.7943 (a.u.)^3
     number of atoms/cell      =           42
     number of atomic types    =            4
     number of electrons       =       377.00
     number of Kohn-Sham states=          227
     kinetic-energy cutoff     =      60.0000  Ry
     charge density cutoff     =     240.0000  Ry
     scf convergence threshold =      1.0E-06
     mixing beta               =       0.7000
     number of iterations used =            8  local-TF  mixing
     Exchange-correlation= BEEF-VDW
                           (   1   4  43  14   2   0   0)

     celldm(1)=  16.034858  celldm(2)=   0.000000  celldm(3)=   0.000000
     celldm(4)=   0.000000  celldm(5)=   0.000000  celldm(6)=   0.000000

     crystal axes: (cart. coord. in units of alat)
               a(1) = (   1.000000   0.000000   0.000000 )
               a(2) = (   0.500000   0.866025   0.000000 )
               a(3) = (   0.000000   0.000000   3.289421 )

     reciprocal axes: (cart. coord. in units 2 pi/alat)
               b(1) = (  1.000000 -0.577350  0.000000 )
               b(2) = (  0.000000  1.154701  0.000000 )
               b(3) = (  0.000000  0.000000  0.304005 )

     PseudoPot. # 1 for Pt read from file:
     /users/bkreitz1/quantum-espresso/potentials/Pt.pbe-n-kjpaw_psl.1.0.0.UPF
     MD5 check sum: 04dc8a03c51ece93fc7b5889c2958091
     Pseudo is Projector augmented-wave + core cor, Zval = 10.0
     Generated using 'atomic' code by A. Dal Corso  v.6.7MaX
     Shape of augmentation charge: PSQ
     Using radial grid of 1277 points,  6 beta functions with:
                l(1) =   0
                l(2) =   0
                l(3) =   1
                l(4) =   1
                l(5) =   2
                l(6) =   2
     Q(r) pseudized with 0 coefficients

     PseudoPot. # 2 for C  read from file:
     /users/bkreitz1/quantum-espresso/potentials/C.pbe-n-kjpaw_psl.1.0.0.UPF
     MD5 check sum: a169b0ebad56f5ec0d79c4633f80bf22
     Pseudo is Projector augmented-wave + core cor, Zval =  4.0
     Generated using 'atomic' code by A. Dal Corso  v.6.7MaX
     Shape of augmentation charge: PSQ
     Using radial grid of 1073 points,  4 beta functions with:
                l(1) =   0
                l(2) =   0
                l(3) =   1
                l(4) =   1
     Q(r) pseudized with 0 coefficients

     PseudoPot. # 3 for O  read from file:
     /users/bkreitz1/quantum-espresso/potentials/O.pbe-nl-kjpaw_psl.1.0.0.UPF
     MD5 check sum: eef08af8b58d9ec80f8fdb78829eb7cf
     Pseudo is Projector augmented-wave + core cor, Zval =  6.0
     Generated using 'atomic' code by A. Dal Corso  v.6.7MaX
     Shape of augmentation charge: PSQ
     Using radial grid of 1095 points,  4 beta functions with:
                l(1) =   0
                l(2) =   0
                l(3) =   1
                l(4) =   1
     Q(r) pseudized with 0 coefficients

     PseudoPot. # 4 for H  read from file:
     /users/bkreitz1/quantum-espresso/potentials/H.pbe-kjpaw_psl.1.0.0.UPF
     MD5 check sum: ae98473e6dc62675f0d0baffdab24f65
     Pseudo is Projector augmented-wave, Zval =  1.0
     Generated using 'atomic' code by A. Dal Corso  v.6.7MaX
     Shape of augmentation charge: PSQ
     Using radial grid of  929 points,  2 beta functions with:
                l(1) =   0
                l(2) =   0
     Q(r) pseudized with 0 coefficients

     atomic species   valence    mass     pseudopotential
        Pt            10.00   195.08400     Pt( 1.00)
        C              4.00    12.01100     C ( 1.00)
        O              6.00    15.99900     O ( 1.00)
        H              1.00     1.00800     H ( 1.00)

     No symmetry found

   Cartesian axes

     site n.     atom                  positions (alat units)
         1           Pt  tau(   1) = (   0.0000000   0.0000000   1.0017346  )
         2           Pt  tau(   2) = (   0.3333333   0.0000000   1.0017346  )
         3           Pt  tau(   3) = (   0.6666667   0.0000000   1.0017346  )
         4           Pt  tau(   4) = (   0.1666667   0.2886751   1.0017346  )
         5           Pt  tau(   5) = (   0.5000000   0.2886751   1.0017346  )
         6           Pt  tau(   6) = (   0.8333333   0.2886751   1.0017346  )
         7           Pt  tau(   7) = (   0.3333333   0.5773503   1.0017346  )
         8           Pt  tau(   8) = (   0.6666667   0.5773503   1.0017346  )
         9           Pt  tau(   9) = (   1.0000000   0.5773503   1.0017346  )
        10           Pt  tau(  10) = (   0.1666667   0.0962250   1.2739001  )
        11           Pt  tau(  11) = (   0.5000000   0.0962250   1.2739001  )
        12           Pt  tau(  12) = (   0.8333333   0.0962250   1.2739001  )
        13           Pt  tau(  13) = (   0.3333333   0.3849002   1.2739001  )
        14           Pt  tau(  14) = (   0.6666667   0.3849002   1.2739001  )
        15           Pt  tau(  15) = (   1.0000000   0.3849002   1.2739001  )
        16           Pt  tau(  16) = (   0.5000000   0.6735753   1.2739001  )
        17           Pt  tau(  17) = (   0.8333333   0.6735753   1.2739001  )
        18           Pt  tau(  18) = (   1.1666667   0.6735753   1.2739001  )
        19           Pt  tau(  19) = (  -0.0001269   0.1920820   1.5411073  )
        20           Pt  tau(  20) = (   0.3353786   0.1928990   1.5471515  )
        21           Pt  tau(  21) = (   0.6643589   0.1934280   1.5473434  )
        22           Pt  tau(  22) = (   0.1670867   0.4807490   1.5426483  )
        23           Pt  tau(  23) = (   0.5003873   0.4786826   1.5462807  )
        24           Pt  tau(  24) = (   0.8331859   0.4806404   1.5426312  )
        25           Pt  tau(  25) = (   0.3333362   0.7696314   1.5415777  )
        26           Pt  tau(  26) = (   0.6669695   0.7694551   1.5423257  )
        27           Pt  tau(  27) = (   1.0000143   0.7696318   1.5427085  )
        28           Pt  tau(  28) = (   0.0001473  -0.0004961   1.8168279  )
        29           Pt  tau(  29) = (   0.3331274  -0.0014940   1.8176485  )
        30           Pt  tau(  30) = (   0.6671649  -0.0013641   1.8162686  )
        31           Pt  tau(  31) = (   0.1645875   0.2864578   1.8151611  )
        32           Pt  tau(  32) = (   0.4976854   0.2886746   1.8428897  )
        33           Pt  tau(  33) = (   0.8344598   0.2876410   1.8162705  )
        34           Pt  tau(  34) = (   0.3342315   0.5786204   1.8154038  )
        35           Pt  tau(  35) = (   0.6678261   0.5778487   1.8168996  )
        36           Pt  tau(  36) = (   1.0000899   0.5766804   1.8165206  )
        37           C   tau(  37) = (   0.4919085   0.3076039   2.0790737  )
        38           C   tau(  38) = (   0.3830220   0.3911187   2.1606478  )
        39           O   tau(  39) = (   0.6071392   0.2318274   2.1608609  )
        40           H   tau(  40) = (   0.2791168   0.4398302   2.1059046  )
        41           H   tau(  41) = (   0.3994720   0.4076777   2.2864591  )
        42           H   tau(  42) = (   0.6931213   0.2030342   2.0916909  )

     number of k points=    13  Marzari-Vanderbilt smearing, width (Ry)=  0.0200
                       cart. coord. in units 2pi/alat
        k(    1) = (   0.0000000   0.0000000   0.0000000), wk =   0.0800000
        k(    2) = (   0.0000000   0.2309401   0.0000000), wk =   0.1600000
        k(    3) = (   0.0000000   0.4618802   0.0000000), wk =   0.1600000
        k(    4) = (   0.2000000  -0.1154701   0.0000000), wk =   0.1600000
        k(    5) = (   0.2000000   0.1154701   0.0000000), wk =   0.1600000
        k(    6) = (   0.2000000   0.3464102   0.0000000), wk =   0.1600000
        k(    7) = (   0.2000000  -0.5773503   0.0000000), wk =   0.1600000
        k(    8) = (   0.2000000  -0.3464102   0.0000000), wk =   0.1600000
        k(    9) = (   0.4000000  -0.2309401   0.0000000), wk =   0.1600000
        k(   10) = (   0.4000000  -0.0000000   0.0000000), wk =   0.1600000
        k(   11) = (   0.4000000   0.2309401   0.0000000), wk =   0.1600000
        k(   12) = (   0.4000000  -0.6928203   0.0000000), wk =   0.1600000
        k(   13) = (   0.4000000  -0.4618802   0.0000000), wk =   0.1600000

     Check: negative core charge=   -0.000002

     Initial potential from superposition of free atoms

     starting charge  376.99378, renormalised to  377.00000

     negative rho (up, down):  1.248E-02 0.000E+00

     %%%%%%%%%%%%%%%%%%%%%%%%%%%%%%%%%%%%%%%%%%%%%%%%%%%%%%%%%%%%%%%%%%%%%%%%
     %                                                                      %
     % You are using vdW-DF, which was implemented by the Thonhauser group. %
     % Please cite the following two papers that made this development      %
     % possible and the two reviews that describe the various versions:     %
     %                                                                      %
     %   T. Thonhauser et al., PRL 115, 136402 (2015).                      %
     %   T. Thonhauser et al., PRB 76, 125112 (2007).                       %
     %   K. Berland et al., Rep. Prog. Phys. 78, 066501 (2015).             %
     %   D.C. Langreth et al., J. Phys.: Condens. Matter 21, 084203 (2009). %
     %                                                                      %
     %                                                                      %
     % If you are calculating the stress with vdW-DF, please also cite:     %
     %                                                                      %
     %   R. Sabatini et al., J. Phys.: Condens. Matter 24, 424209 (2012).   %
     %                                                                      %
     %%%%%%%%%%%%%%%%%%%%%%%%%%%%%%%%%%%%%%%%%%%%%%%%%%%%%%%%%%%%%%%%%%%%%%%%

     Starting wfcs are  339 randomized atomic wfcs
     Checking if some PAW data can be deallocated...

     Self-consistent Calculation

     iteration #  1     ecut=    60.00 Ry     beta= 0.70
     Davidson diagonalization with overlap
     ethr =  1.00E-02,  avg # of iterations =  2.3

     Threshold (ethr) on eigenvalues was too large:
     Diagonalizing with lowered threshold

     Davidson diagonalization with overlap
     ethr =  7.97E-04,  avg # of iterations =  2.7

[...]

     total energy              =  -27838.09249222 Ry
     estimated scf accuracy    <       3.21908791 Ry

[...]

     iteration #  6     ecut=    60.00 Ry     beta= 0.70
     Davidson diagonalization with overlap
     c_bands:  1 eigenvalues not converged
     c_bands:  1 eigenvalues not converged
     ethr =  1.12E-05,  avg # of iterations = 14.5

[...]

     iteration #  9     ecut=    60.00 Ry     beta= 0.70
     Davidson diagonalization with overlap
     c_bands:  1 eigenvalues not converged
     ethr =  2.06E-06,  avg # of iterations = 10.6

[...]

     total energy              =  -27838.37356054 Ry
     estimated scf accuracy    <       0.00000103 Ry

     iteration # 19     ecut=    60.00 Ry     beta= 0.70
     Davidson diagonalization with overlap
     ethr =  2.74E-10,  avg # of iterations =  1.5

[...]

     End of self-consistent calculation

          k = 0.0000 0.0000 0.0000 ( 92231 PWs)   bands (ev):

   -20.3467 -12.3259  -8.2284  -7.3010  -6.4678  -5.9192  -4.9234  -4.8825
    -4.8790  -4.8758  -4.8657  -4.8451  -4.8430  -4.8292  -4.5676  -4.3218
    -4.3204  -4.3154  -4.3018  -4.3013  -4.2796  -3.9504  -3.8578  -3.8471
    -3.8411  -3.8363  -3.8286  -3.8122  -3.6414  -3.6332  -3.6264  -3.6237
    -3.6013  -3.5839  -3.4257  -3.4077  -3.4060  -3.4003  -3.3926  -3.3911
    -3.3830  -3.3792  -3.3634  -3.3474  -3.3442  -3.3255  -3.1383  -2.8086
    -2.7835  -2.7803  -2.7523  -2.7515  -2.7046  -2.6977  -2.6947  -2.6859
    -2.6534  -2.5557  -2.5527  -2.5003  -2.4721  -2.1691  -1.9843  -1.9788
    -1.9550  -1.9513  -1.9432  -1.9068  -1.8550  -1.8069  -1.7932  -1.7836
    -1.7818  -1.7595  -1.7577  -1.7381  -1.7345  -1.7269  -1.7134  -1.7090
    -1.7009  -1.6780  -1.6744  -1.6382  -1.5703  -1.5590  -1.5451  -1.5421
    -1.5348  -1.3853  -1.3789  -1.3761  -1.3516  -1.3409  -1.3377  -1.3111
    -1.3076  -1.2736  -1.2531  -1.2148  -1.1852  -1.1754  -1.1212  -1.1202
    -1.0891  -1.0813  -1.0707  -1.0466  -0.9570  -0.9453  -0.9234  -0.9164
    -0.9105  -0.9055  -0.5583  -0.4958  -0.4876  -0.4359  -0.4293  -0.4257
    -0.4189  -0.4156  -0.3693  -0.3648  -0.3600  -0.3482  -0.3043  -0.2629
    -0.2615  -0.1566  -0.1457  -0.1241  -0.1202  -0.0716  -0.0416  -0.0230
    -0.0038   0.0572   0.0606   0.0674   0.0681   0.2340   0.2672   0.3067
     0.3121   0.3150   0.3384   0.3767   0.3808   0.5147   0.5582   0.5682
     0.5778   0.5859   0.6369   0.6950   0.7180   0.7220   0.7408   0.7487
     0.7526   0.7665   0.7778   0.7821   0.7847   0.7948   0.8631   0.8691
     0.8757   0.8828   0.9017   0.9042   0.9351   0.9601   0.9914   0.9998
     1.0082   1.0154   1.0370   1.0448   1.0511   1.0625   1.1192   1.1287
     1.1334   1.1434   1.1514   1.1563   1.1706   1.1828   1.2449   1.2494
     1.2539   1.2759   1.2795   1.3069   1.4525   1.4573   1.5498   1.5511
     1.5856   1.5884   1.5906   1.6027   1.8969   2.3882   2.4513   2.4655
     2.4744   2.5038   2.5610   3.7641   4.7169   4.7596   4.8007   4.8104
     4.8222   5.7100   5.9783   6.1883   6.3516   6.3726   6.3936   6.3967
     6.4112   6.4766   6.4850

[...]

          k = 0.4000-0.4619 0.0000 ( 92178 PWs)   bands (ev):

   -20.3467 -12.3261  -8.2265  -6.5349  -6.3277  -6.2120  -5.6934  -5.0952
    -5.0380  -4.6238  -4.5528  -4.4937  -4.4017  -4.3716  -4.2715  -4.2595
    -4.1646  -4.1532  -4.0922  -4.0436  -4.0309  -4.0116  -4.0017  -3.9769
    -3.9682  -3.8591  -3.8404  -3.8237  -3.8106  -3.7781  -3.7660  -3.7061
    -3.6151  -3.5723  -3.5267  -3.4354  -3.4261  -3.4136  -3.4024  -3.3705
    -3.2979  -3.2866  -3.2018  -3.1862  -3.1368  -2.9940  -2.9852  -2.9617
    -2.8539  -2.8143  -2.7971  -2.7727  -2.6735  -2.6615  -2.6045  -2.5914
    -2.5628  -2.5292  -2.5096  -2.4785  -2.3957  -2.3833  -2.3751  -2.3529
    -2.3431  -2.3300  -2.3142  -2.2867  -2.2432  -2.1482  -2.1369  -2.1055
    -2.0751  -2.0263  -1.9687  -1.9225  -1.9125  -1.8881  -1.8554  -1.8340
    -1.8067  -1.7309  -1.7233  -1.7131  -1.6893  -1.6617  -1.6418  -1.5791
    -1.5624  -1.5258  -1.5031  -1.4833  -1.4745  -1.4097  -1.3444  -1.3038
    -1.2983  -1.2802  -1.2751  -1.2381  -1.2257  -1.2067  -1.1793  -1.1674
    -1.1604  -1.1385  -1.1145  -1.0942  -1.0813  -1.0654  -1.0499  -1.0469
    -1.0266  -0.9987  -0.9805  -0.9598  -0.8250  -0.7568  -0.6947  -0.6490
    -0.6442  -0.5574  -0.5348  -0.5228  -0.5009  -0.4806  -0.4525  -0.4291
    -0.4150  -0.3838  -0.3409  -0.3108  -0.2866  -0.2563  -0.2318  -0.1758
    -0.1544  -0.1128  -0.0514   0.0253   0.0674   0.0878   0.1208   0.1460
     0.1979   0.2102   0.2407   0.2516   0.2666   0.2903   0.3012   0.3368
     0.3961   0.4184   0.4552   0.4739   0.5059   0.5165   0.5410   0.5487
     0.6289   0.6860   0.7641   0.7761   0.8675   0.9157   0.9418   0.9659
     0.9795   1.0442   1.0841   1.1043   1.1574   1.2358   1.2413   1.2704
     1.2885   1.3080   1.3241   1.3552   1.3675   1.3850   1.4631   1.4724
     1.4886   1.5038   1.5247   1.5296   1.5504   1.5978   1.7015   1.7152
     1.7394   1.7462   1.7554   1.8095   1.8666   1.9304   2.0652   2.6142
     2.8920   2.8963   3.0864   3.1615   3.2664   3.2809   3.2879   3.5471
     3.8979   3.9055   3.9922   4.3470   4.3819   4.4625   4.4975   4.5496
     4.7119   4.8045   4.8864   5.0879   5.2105   5.3247   5.5466   5.8804
     5.9377   5.9957   6.2544

     the Fermi energy is     1.5148 ev

!    total energy              =  -27838.37355957 Ry

     total all-electron energy =  -1326949.514057 Ry
     estimated scf accuracy    <       0.00000034 Ry
     smearing contrib. (-TS)   =       0.00261370 Ry
     internal energy E=F+TS    =  -27838.37617327 Ry

     The total energy is F=E-TS. E is the sum of the following terms:
     one-electron contribution =  -28990.62115544 Ry
     hartree contribution      =   14795.82503547 Ry
     xc contribution           =    -909.53572247 Ry
     ewald contribution        =   12763.14850201 Ry
     one-center paw contrib.   =  -25497.19283285 Ry

     convergence has been achieved in  19 iterations

[...]

     Forces acting on atoms (cartesian axes, Ry/au):

     atom    1 type  1   force =     0.00048879   -0.00043365   -0.00733086
     atom    2 type  1   force =    -0.00057125    0.00006087   -0.00322921
     atom    3 type  1   force =     0.00053436    0.00010130   -0.00338765
     atom    4 type  1   force =    -0.00053806   -0.00027603   -0.00346582
     atom    5 type  1   force =     0.00011328   -0.00002598   -0.00331371
     atom    6 type  1   force =     0.00031419   -0.00031316   -0.00393251
     atom    7 type  1   force =     0.00001402    0.00059002   -0.00370727
     atom    8 type  1   force =    -0.00017557    0.00059522   -0.00347492
     atom    9 type  1   force =     0.00000558   -0.00005823   -0.00328896
     atom   10 type  1   force =     0.00053795   -0.00055822   -0.00033389
     atom   11 type  1   force =     0.00014803    0.00207353    0.01010543
     atom   12 type  1   force =    -0.00010664   -0.00011240   -0.00016905
     atom   13 type  1   force =     0.00174994   -0.00143088    0.00941518
     atom   14 type  1   force =    -0.00149150   -0.00162543    0.00956721
     atom   15 type  1   force =     0.00002599   -0.00001333    0.00278391
     atom   16 type  1   force =     0.00036556    0.00022119   -0.00012406
     atom   17 type  1   force =    -0.00029252    0.00028911    0.00211043
     atom   18 type  1   force =    -0.00007473   -0.00022656    0.00250135
     atom   19 type  1   force =    -0.00002728    0.00012078   -0.00009914
     atom   20 type  1   force =    -0.00029899   -0.00004673   -0.00008948
     atom   21 type  1   force =     0.00020707   -0.00005177    0.00007405
     atom   22 type  1   force =    -0.00010230    0.00004823    0.00024414
     atom   23 type  1   force =    -0.00009272    0.00040124    0.00002049
     atom   24 type  1   force =    -0.00004915    0.00003760   -0.00021550
     atom   25 type  1   force =    -0.00003529    0.00000681   -0.00019477
     atom   26 type  1   force =    -0.00006850    0.00004682    0.00002944
     atom   27 type  1   force =    -0.00008605    0.00002473   -0.00009649
     atom   28 type  1   force =    -0.00016012    0.00009079   -0.00020931
     atom   29 type  1   force =    -0.00013673    0.00002881   -0.00024793
     atom   30 type  1   force =    -0.00029539    0.00025842   -0.00010724
     atom   31 type  1   force =    -0.00020034    0.00022374   -0.00022052
     atom   32 type  1   force =     0.00011284   -0.00003431    0.00000630
     atom   33 type  1   force =    -0.00014234    0.00025569   -0.00021794
     atom   34 type  1   force =    -0.00029166    0.00030265   -0.00017251
     atom   35 type  1   force =    -0.00020062    0.00008391   -0.00020104
     atom   36 type  1   force =    -0.00015488    0.00021110   -0.00018372
     atom   37 type  2   force =     0.00142785    0.00013191    0.00200263
     atom   38 type  2   force =    -0.00004397   -0.00104779    0.00014352
     atom   39 type  3   force =    -0.00794719    0.00294442    0.00662418
     atom   40 type  4   force =     0.00101698   -0.00064116    0.00015608
     atom   41 type  4   force =    -0.00037073   -0.00011769   -0.00072034
     atom   42 type  4   force =     0.00689209   -0.00213555   -0.00705051

     Total force =     0.015111     Total SCF correction =     0.001031

[...]

     negative rho (up, down):  1.375E-02 0.000E+00

     negative rho (up, down):  1.375E-02 0.000E+00
 BEEFens 2000 ensemble energies
             -0.608954296234719E+02
             -0.362483988565387E+01
             -0.158800669523567E+02
              0.430993773455245E+02
             -0.221934723898657E+02
             -0.205913773291068E+02
             -0.353888842443648E+02
             -0.868265144529002E+02
             -0.466473208521170E+02
             -0.474205788372161E+02
             -0.370605540491092E+02
              0.230105718807345E+01
              0.407787543372805E+01
              0.761737098002578E+01
              0.266951488880477E+01
              0.476585249951353E+02
             -0.209525943727100E+02
             -0.230677434434750E+02
              0.193647917305873E+02
             -0.112781908884862E+03
              0.538377875335651E+02
             -0.290586759218205E+02
             -0.336290589128060E+01
             -0.114492092125740E+02
             -0.883683095475897E+01
             -0.465294049977851E+01
              0.885858243280015E+02
             -0.187933445664371E+02
             -0.903304500693514E+01
             -0.520329413352436E+02
              0.818041618016180E+02
             -0.187571985080578E+02
             -0.376360512444680E+02
              0.249975146896869E+02
             -0.285644384021128E+01
              0.164916256767812E+02
             -0.485633267115441E+01
              0.108218285413502E+02
              0.289484840512032E+02
             -0.103626010733993E+03
              0.560366706275873E+02
              0.142845230014347E+02
             -0.175538412366666E+01
             -0.362632371596134E+02
              0.123593458555906E+02
             -0.147481162521539E+02
              0.400053854810374E+02
              0.366095030341479E+02
             -0.308895400382395E+02
             -0.276134854815584E+02
             -0.329441461890608E+02
             -0.353420108125591E+02
              0.136959390749084E+02
             -0.492656681426745E+02
              0.116142755679427E+02
              0.625278083927552E+02
              0.637911456977964E+02
              0.357069365722228E+02
              0.154677985348825E+02
              0.271627790435260E+02
[...]
             -0.708743443715510E+02
             -0.874311438529276E+00
             -0.247023034619737E+01
             -0.886059182874646E+01
             -0.179922950397673E+01
             -0.655125886907358E+02
             -0.211106532704288E+02
              0.542769116195369E+01
              0.903689848095743E+01
              0.470563457874792E+02
             -0.399144792600873E+02
              0.659227466978476E+02
             -0.426626156334099E+02
              0.211273036139311E+02
              0.351717780616550E+02

 BEEF-vdW xc energy contributions
           1 :   -785.341457795168
           2 :    721.326363740743
           3 :   -610.549428133226
           4 :    480.218472194103
           5 :   -357.912729207220
           6 :    263.462887946102
           7 :   -204.492952395199
           8 :    176.442085455683
           9 :   -166.610394291050
          10 :    160.323784599592
          11 :   -146.716976578364
          12 :    121.968197203900
          13 :   -89.1462443610051
          14 :    55.2956577247438
          15 :   -27.4469443608423
          16 :    9.35278675638131
          17 :  -0.206975754961150
          18 :   -4.39731694413683
          19 :    9.97526084504204
          20 :   -20.4344610056171
          21 :    36.3858088928849
          22 :   -55.1498482411766
          23 :    72.2860052098210
          24 :   -83.8114234680220
          25 :    88.0172544275152
          26 :   -86.0832537008342
          27 :    81.3029031611599
          28 :   -77.3897963578594
          29 :    76.7179411226637
          30 :   -79.3205422713324
          31 :   -86.1181854237427
          32 :   -65.9624090944270

     Writing output data file ./pwscf.save/

     General routines

     Parallel routines

   This run was terminated on:   2:36: 8   4Jan2023

   JOB DONE.