     Program PWSCF v.6.7MaX starts on 26Sep2022 at 14: 1: 4

     Reading input from ch2cch2-ensemble.in
Warning: card &CELL ignored
Warning: card / ignored

     Current dimensions of program PWSCF are:
     Max number of different atomic species (ntypx) = 10
     Max number of k-points (npk) =  40000
     Max angular momentum in pseudopotentials (lmaxx) =  3
     file Pt.pbe-n-kjpaw_psl.1.0.0.UPF: wavefunction(s)  6S 5D renormalized
     file C.pbe-n-kjpaw_psl.1.0.0.UPF: wavefunction(s)  2S 2P renormalized
     file H.pbe-kjpaw_psl.1.0.0.UPF: wavefunction(s)  1S renormalized

     IMPORTANT: XC functional enforced from input :
     Exchange-correlation= BEEF-VDW
                           (   1   4  43  14   2   0   0)
     Any further DFT definition will be discarded
     Please, verify this is what you really want

     Subspace diagonalization in iterative solution of the eigenvalue problem:
     a serial algorithm will be used

     bravais-lattice index     =            0
     lattice parameter (alat)  =      16.0349  a.u.
     unit-cell volume          =   12088.4320 (a.u.)^3
     number of atoms/cell      =           43
     number of atomic types    =            3
     number of electrons       =       376.00
     number of Kohn-Sham states=          226
     kinetic-energy cutoff     =      60.0000  Ry
     charge density cutoff     =     240.0000  Ry
     scf convergence threshold =      1.0E-06
     mixing beta               =       0.7000
     number of iterations used =            8  local-TF  mixing
     Exchange-correlation= BEEF-VDW
                           (   1   4  43  14   2   0   0)

     celldm(1)=  16.034858  celldm(2)=   0.000000  celldm(3)=   0.000000
     celldm(4)=   0.000000  celldm(5)=   0.000000  celldm(6)=   0.000000

     crystal axes: (cart. coord. in units of alat)
               a(1) = (   1.000000   0.000000   0.000000 )
               a(2) = (   0.500000   0.866025   0.000000 )
               a(3) = (   0.000000   0.000000   3.385665 )

     reciprocal axes: (cart. coord. in units 2 pi/alat)
               b(1) = (  1.000000 -0.577350  0.000000 )
               b(2) = (  0.000000  1.154701  0.000000 )
               b(3) = (  0.000000  0.000000  0.295363 )

     PseudoPot. # 1 for Pt read from file:
     /users/bkreitz1/quantum-espresso/potentials/Pt.pbe-n-kjpaw_psl.1.0.0.UPF
     MD5 check sum: 04dc8a03c51ece93fc7b5889c2958091
     Pseudo is Projector augmented-wave + core cor, Zval = 10.0
     Generated using 'atomic' code by A. Dal Corso  v.6.7MaX
     Shape of augmentation charge: PSQ
     Using radial grid of 1277 points,  6 beta functions with:
                l(1) =   0
                l(2) =   0
                l(3) =   1
                l(4) =   1
                l(5) =   2
                l(6) =   2
     Q(r) pseudized with 0 coefficients

     PseudoPot. # 2 for C  read from file:
     /users/bkreitz1/quantum-espresso/potentials/C.pbe-n-kjpaw_psl.1.0.0.UPF
     MD5 check sum: a169b0ebad56f5ec0d79c4633f80bf22
     Pseudo is Projector augmented-wave + core cor, Zval =  4.0
     Generated using 'atomic' code by A. Dal Corso  v.6.7MaX
     Shape of augmentation charge: PSQ
     Using radial grid of 1073 points,  4 beta functions with:
                l(1) =   0
                l(2) =   0
                l(3) =   1
                l(4) =   1
     Q(r) pseudized with 0 coefficients

     PseudoPot. # 3 for H  read from file:
     /users/bkreitz1/quantum-espresso/potentials/H.pbe-kjpaw_psl.1.0.0.UPF
     MD5 check sum: ae98473e6dc62675f0d0baffdab24f65
     Pseudo is Projector augmented-wave, Zval =  1.0
     Generated using 'atomic' code by A. Dal Corso  v.6.7MaX
     Shape of augmentation charge: PSQ
     Using radial grid of  929 points,  2 beta functions with:
                l(1) =   0
                l(2) =   0
     Q(r) pseudized with 0 coefficients

     atomic species   valence    mass     pseudopotential
        Pt            10.00   195.08400     Pt( 1.00)
        C              4.00    12.01100     C ( 1.00)
        H              1.00     1.00800     H ( 1.00)

     No symmetry found

   Cartesian axes

     site n.     atom                  positions (alat units)
         1           Pt  tau(   1) = (   0.0000000   0.0000000   1.0017346  )
         2           Pt  tau(   2) = (   0.3333333   0.0000000   1.0017346  )
         3           Pt  tau(   3) = (   0.6666667   0.0000000   1.0017346  )
         4           Pt  tau(   4) = (   0.1666667   0.2886751   1.0017346  )
         5           Pt  tau(   5) = (   0.5000000   0.2886751   1.0017346  )
         6           Pt  tau(   6) = (   0.8333333   0.2886751   1.0017346  )
         7           Pt  tau(   7) = (   0.3333333   0.5773503   1.0017346  )
         8           Pt  tau(   8) = (   0.6666667   0.5773503   1.0017346  )
         9           Pt  tau(   9) = (   1.0000000   0.5773503   1.0017346  )
        10           Pt  tau(  10) = (   0.1666667   0.0962250   1.2739001  )
        11           Pt  tau(  11) = (   0.5000000   0.0962250   1.2739001  )
        12           Pt  tau(  12) = (   0.8333333   0.0962250   1.2739001  )
        13           Pt  tau(  13) = (   0.3333333   0.3849002   1.2739001  )
        14           Pt  tau(  14) = (   0.6666667   0.3849002   1.2739001  )
        15           Pt  tau(  15) = (   1.0000000   0.3849002   1.2739001  )
        16           Pt  tau(  16) = (   0.5000000   0.6735753   1.2739001  )
        17           Pt  tau(  17) = (   0.8333333   0.6735753   1.2739001  )
        18           Pt  tau(  18) = (   1.1666667   0.6735753   1.2739001  )
        19           Pt  tau(  19) = (  -0.0000603   0.1920869   1.5425404  )
        20           Pt  tau(  20) = (   0.3329295   0.1919958   1.5425355  )
        21           Pt  tau(  21) = (   0.6665284   0.1920014   1.5425274  )
        22           Pt  tau(  22) = (   0.1665419   0.4807356   1.5427450  )
        23           Pt  tau(  23) = (   0.4998746   0.4809906   1.5425462  )
        24           Pt  tau(  24) = (   0.8330904   0.4808690   1.5426482  )
        25           Pt  tau(  25) = (   0.3331562   0.7694835   1.5426958  )
        26           Pt  tau(  26) = (   0.6665500   0.7691919   1.5429923  )
        27           Pt  tau(  27) = (   0.9998411   0.7694776   1.5427012  )
        28           Pt  tau(  28) = (  -0.0003715  -0.0009147   1.8166539  )
        29           Pt  tau(  29) = (   0.3330856  -0.0009127   1.8169271  )
        30           Pt  tau(  30) = (   0.6663140  -0.0010257   1.8168017  )
        31           Pt  tau(  31) = (   0.1662617   0.2878201   1.8170868  )
        32           Pt  tau(  32) = (   0.4992728   0.2877504   1.8157207  )
        33           Pt  tau(  33) = (   0.8332953   0.2876172   1.8162217  )
        34           Pt  tau(  34) = (   0.3329294   0.5765906   1.8168136  )
        35           Pt  tau(  35) = (   0.6662605   0.5761212   1.8176918  )
        36           Pt  tau(  36) = (   0.9997997   0.5766081   1.8166074  )
        37           C   tau(  37) = (   0.6678477   0.2349640   2.2679481  )
        38           C   tau(  38) = (   0.6878546   0.3867990   2.2535845  )
        39           C   tau(  39) = (   0.7067789   0.5391414   2.2384480  )
        40           H   tau(  40) = (   0.6279444   0.1635236   2.1696395  )
        41           H   tau(  41) = (   0.6899878   0.1750791   2.3786330  )
        42           H   tau(  42) = (   0.8191042   0.5892216   2.2033137  )
        43           H   tau(  43) = (   0.6111864   0.6208389   2.2629434  )

     number of k points=    13  Marzari-Vanderbilt smearing, width (Ry)=  0.0200
                       cart. coord. in units 2pi/alat
        k(    1) = (   0.0000000   0.0000000   0.0000000), wk =   0.0800000
        k(    2) = (   0.0000000   0.2309401   0.0000000), wk =   0.1600000
        k(    3) = (   0.0000000   0.4618802   0.0000000), wk =   0.1600000
        k(    4) = (   0.2000000  -0.1154701   0.0000000), wk =   0.1600000
        k(    5) = (   0.2000000   0.1154701   0.0000000), wk =   0.1600000
        k(    6) = (   0.2000000   0.3464102   0.0000000), wk =   0.1600000
        k(    7) = (   0.2000000  -0.5773503   0.0000000), wk =   0.1600000
        k(    8) = (   0.2000000  -0.3464102   0.0000000), wk =   0.1600000
        k(    9) = (   0.4000000  -0.2309401   0.0000000), wk =   0.1600000
        k(   10) = (   0.4000000  -0.0000000   0.0000000), wk =   0.1600000
        k(   11) = (   0.4000000   0.2309401   0.0000000), wk =   0.1600000
        k(   12) = (   0.4000000  -0.6928203   0.0000000), wk =   0.1600000
        k(   13) = (   0.4000000  -0.4618802   0.0000000), wk =   0.1600000

     Check: negative core charge=   -0.000002

     Initial potential from superposition of free atoms

     starting charge  375.99373, renormalised to  376.00000

     negative rho (up, down):  1.101E-02 0.000E+00

     %%%%%%%%%%%%%%%%%%%%%%%%%%%%%%%%%%%%%%%%%%%%%%%%%%%%%%%%%%%%%%%%%%%%%%%%
     %                                                                      %
     % You are using vdW-DF, which was implemented by the Thonhauser group. %
     % Please cite the following two papers that made this development      %
     % possible and the two reviews that describe the various versions:     %
     %                                                                      %
     %   T. Thonhauser et al., PRL 115, 136402 (2015).                      %
     %   T. Thonhauser et al., PRB 76, 125112 (2007).                       %
     %   K. Berland et al., Rep. Prog. Phys. 78, 066501 (2015).             %
     %   D.C. Langreth et al., J. Phys.: Condens. Matter 21, 084203 (2009). %
     %                                                                      %
     %                                                                      %
     % If you are calculating the stress with vdW-DF, please also cite:     %
     %                                                                      %
     %   R. Sabatini et al., J. Phys.: Condens. Matter 24, 424209 (2012).   %
     %                                                                      %
     %%%%%%%%%%%%%%%%%%%%%%%%%%%%%%%%%%%%%%%%%%%%%%%%%%%%%%%%%%%%%%%%%%%%%%%%

     Starting wfcs are  340 randomized atomic wfcs
     Checking if some PAW data can be deallocated...

     Self-consistent Calculation

     iteration #  1     ecut=    60.00 Ry     beta= 0.70
     Davidson diagonalization with overlap
     ethr =  1.00E-02,  avg # of iterations =  2.0

     Threshold (ethr) on eigenvalues was too large:
     Diagonalizing with lowered threshold

     Davidson diagonalization with overlap
     ethr =  7.24E-04,  avg # of iterations =  2.7

[...]

     total energy              =  -27815.83431241 Ry
     estimated scf accuracy    <       2.95113116 Ry

[...]

     iteration #  5     ecut=    60.00 Ry     beta= 0.70
     Davidson diagonalization with overlap
     c_bands:  1 eigenvalues not converged
     c_bands:  2 eigenvalues not converged
     ethr =  2.76E-05,  avg # of iterations =  6.7

[...]

     iteration # 16     ecut=    60.00 Ry     beta= 0.70
     Davidson diagonalization with overlap
     c_bands:  1 eigenvalues not converged
     ethr =  2.97E-08,  avg # of iterations =  4.7

[...]

     total energy              =  -27816.03788573 Ry
     estimated scf accuracy    <       0.00000230 Ry

     iteration # 23     ecut=    60.00 Ry     beta= 0.70
     Davidson diagonalization with overlap
     ethr =  6.13E-10,  avg # of iterations =  2.3

[...]

     End of self-consistent calculation

          k = 0.0000 0.0000 0.0000 ( 94981 PWs)   bands (ev):

   -13.1496 -10.9496  -7.4414  -6.3411  -6.1297  -5.0570  -5.0215  -5.0198
    -5.0182  -5.0181  -5.0177  -5.0163  -5.0080  -4.5156  -4.4620  -4.4617
    -4.4610  -4.4602  -4.4601  -4.4591  -4.3191  -4.3082  -3.9878  -3.9869
    -3.9869  -3.9853  -3.9845  -3.9843  -3.7716  -3.7713  -3.7700  -3.7696
    -3.7693  -3.7674  -3.5436  -3.5432  -3.5374  -3.5353  -3.5257  -3.5248
    -3.5240  -3.5226  -3.5220  -3.5212  -3.5072  -3.5039  -2.9273  -2.9268
    -2.8932  -2.8928  -2.8391  -2.8383  -2.8369  -2.8368  -2.8364  -2.8349
    -2.7000  -2.6990  -2.5992  -2.5961  -2.0934  -2.0919  -2.0916  -2.0897
    -2.0886  -2.0869  -2.0259  -1.9353  -1.9352  -1.9047  -1.9042  -1.8920
    -1.8894  -1.8765  -1.8705  -1.8703  -1.8695  -1.8693  -1.8683  -1.8668
    -1.8332  -1.8325  -1.6794  -1.6778  -1.6761  -1.6755  -1.6743  -1.6725
    -1.5246  -1.5201  -1.5195  -1.5186  -1.5172  -1.5157  -1.4238  -1.4233
    -1.3256  -1.3247  -1.2621  -1.2618  -1.2544  -1.2530  -1.2160  -1.2156
    -1.2029  -1.2022  -1.0599  -1.0544  -1.0504  -1.0485  -1.0477  -1.0472
    -1.0415  -0.5561  -0.5551  -0.5536  -0.5534  -0.5529  -0.5516  -0.4955
    -0.4827  -0.4822  -0.4796  -0.4776  -0.4767  -0.4108  -0.4075  -0.2800
    -0.2411  -0.2380  -0.2350  -0.2323  -0.2314  -0.0973  -0.0949  -0.0925
    -0.0832  -0.0805  -0.0802   0.0376   0.0655   0.1756   0.1762   0.1770
     0.1777   0.1787   0.1793   0.2552   0.2583   0.4354   0.4372   0.4393
     0.4397   0.4437   0.4576   0.6078   0.6092   0.6102   0.6105   0.6118
     0.6134   0.6527   0.6535   0.6542   0.6555   0.6636   0.6963   0.7854
     0.7874   0.8052   0.8063   0.8072   0.8078   0.8080   0.8088   0.9102
     0.9129   0.9130   0.9145   0.9158   0.9168   0.9194   0.9204   1.0149
     1.0153   1.0161   1.0180   1.0183   1.0191   1.1166   1.1200   1.1256
     1.1261   1.1295   1.1302   1.2286   1.3415   1.3479   1.4504   1.4511
     1.4532   1.4534   1.4547   1.4556   2.2915   2.3364   2.3384   2.3413
     2.3470   2.3551   2.3953   4.6487   4.6578   4.6674   4.6752   4.6894
     4.7068   5.5700   5.9061   6.0086   6.2116   6.2203   6.2656   6.2676
     6.2699   6.2705

[...]

          k = 0.4000-0.4619 0.0000 ( 94884 PWs)   bands (ev):

   -13.1495 -10.9500  -6.4742  -6.4729  -6.3351  -5.8652  -5.2163  -5.2129
    -4.7021  -4.7009  -4.5670  -4.5329  -4.5153  -4.4239  -4.4222  -4.3390
    -4.3176  -4.3144  -4.3062  -4.1902  -4.1878  -4.1848  -4.1506  -4.1494
    -4.1177  -4.1033  -3.9921  -3.9821  -3.9812  -3.9395  -3.9360  -3.8377
    -3.7443  -3.7260  -3.6601  -3.5670  -3.5646  -3.5497  -3.5489  -3.5322
    -3.4199  -3.4191  -3.3253  -3.3239  -3.1504  -3.1416  -3.0824  -2.9826
    -2.9815  -2.9309  -2.9303  -2.8222  -2.7717  -2.7243  -2.7225  -2.7023
    -2.6582  -2.6567  -2.6270  -2.5212  -2.5204  -2.4904  -2.4897  -2.4827
    -2.4820  -2.4796  -2.4076  -2.4062  -2.2769  -2.2531  -2.2055  -2.2010
    -2.0863  -2.0488  -2.0464  -2.0450  -1.9989  -1.9575  -1.9568  -1.8696
    -1.8440  -1.8417  -1.8375  -1.8061  -1.7751  -1.7250  -1.7229  -1.6799
    -1.6252  -1.6228  -1.6045  -1.6028  -1.4921  -1.4476  -1.4420  -1.4004
    -1.3987  -1.3576  -1.3559  -1.3412  -1.3388  -1.3118  -1.3044  -1.2591
    -1.2578  -1.2263  -1.2102  -1.2095  -1.2062  -1.2047  -1.1873  -1.1584
    -1.0914  -1.0888  -1.0876  -0.8800  -0.8735  -0.7774  -0.7766  -0.6699
    -0.6589  -0.6554  -0.6322  -0.5818  -0.5675  -0.5658  -0.5458  -0.5419
    -0.4629  -0.4248  -0.4212  -0.3610  -0.3496  -0.3365  -0.2841  -0.2725
    -0.2298  -0.0935  -0.0324  -0.0155  -0.0043   0.0067   0.0222   0.0580
     0.1058   0.1114   0.1191   0.1314   0.1534   0.1717   0.1877   0.2100
     0.3070   0.3105   0.3287   0.3751   0.3772   0.3999   0.4076   0.4212
     0.4404   0.5838   0.6318   0.6670   0.7402   0.7477   0.8226   0.8246
     0.9093   0.9540   0.9575   0.9610   1.0630   1.0680   1.1368   1.1686
     1.1780   1.1856   1.1900   1.2307   1.2384   1.2693   1.3444   1.3464
     1.3703   1.3971   1.3988   1.4027   1.4141   1.4629   1.6041   1.6078
     1.6102   1.6120   1.6133   1.6874   1.7595   1.8016   1.9424   2.7612
     2.7615   2.9943   3.0113   3.0455   3.1645   3.1662   3.1729   3.6206
     3.7730   3.7740   4.2322   4.2543   4.2609   4.3765   4.3792   4.5916
     4.6748   4.7455   4.8036   5.1130   5.2047   5.2122   5.6872   5.7343
     5.8246   5.8652

     the Fermi energy is     1.3770 ev

!    total energy              =  -27816.03788586 Ry

     total all-electron energy =  -1326876.095581 Ry
     estimated scf accuracy    <       0.00000033 Ry
     smearing contrib. (-TS)   =       0.00263122 Ry
     internal energy E=F+TS    =  -27816.04051707 Ry

     The total energy is F=E-TS. E is the sum of the following terms:
     one-electron contribution =  -30196.14720049 Ry
     hartree contribution      =   15395.85856559 Ry
     xc contribution           =    -907.25394690 Ry
     ewald contribution        =   13385.10180983 Ry
     one-center paw contrib.   =  -25493.59974510 Ry

     convergence has been achieved in  23 iterations

[...]

     Forces acting on atoms (cartesian axes, Ry/au):

     atom    1 type  1   force =     0.00008216    0.00012082   -0.00321704
     atom    2 type  1   force =    -0.00002981    0.00009844   -0.00327285
     atom    3 type  1   force =    -0.00000153    0.00007558   -0.00330898
     atom    4 type  1   force =     0.00007090    0.00004653   -0.00370796
     atom    5 type  1   force =    -0.00003777    0.00006255   -0.00323291
     atom    6 type  1   force =     0.00004670    0.00009890   -0.00327446
     atom    7 type  1   force =    -0.00002986   -0.00004542   -0.00330760
     atom    8 type  1   force =     0.00007501    0.00007761   -0.00343179
     atom    9 type  1   force =     0.00000788   -0.00000869   -0.00321682
     atom   10 type  1   force =    -0.00006461   -0.00017752    0.00395983
     atom   11 type  1   force =    -0.00001547   -0.00016505    0.00321516
     atom   12 type  1   force =    -0.00020359   -0.00011233    0.00317717
     atom   13 type  1   force =    -0.00021164   -0.00011176    0.00331440
     atom   14 type  1   force =     0.00001768   -0.00007644    0.00304926
     atom   15 type  1   force =     0.00005907    0.00000811    0.00338937
     atom   16 type  1   force =     0.00005859   -0.00014675    0.00325786
     atom   17 type  1   force =    -0.00009054   -0.00022933    0.00350430
     atom   18 type  1   force =    -0.00012161   -0.00017495    0.00339411
     atom   19 type  1   force =    -0.00000297   -0.00004496    0.00014102
     atom   20 type  1   force =     0.00015028   -0.00001745   -0.00007297
     atom   21 type  1   force =    -0.00004194    0.00021685    0.00003593
     atom   22 type  1   force =    -0.00003999   -0.00009723   -0.00017442
     atom   23 type  1   force =     0.00018027   -0.00013462    0.00030396
     atom   24 type  1   force =    -0.00005495   -0.00002196    0.00015254
     atom   25 type  1   force =     0.00010489   -0.00005398    0.00003802
     atom   26 type  1   force =     0.00002706   -0.00001616    0.00015293
     atom   27 type  1   force =    -0.00015364   -0.00001034   -0.00006753
     atom   28 type  1   force =     0.00001964    0.00001851    0.00075793
     atom   29 type  1   force =    -0.00006451    0.00001647    0.00033295
     atom   30 type  1   force =    -0.00002001    0.00012770   -0.00002080
     atom   31 type  1   force =     0.00009742   -0.00002645   -0.00010709
     atom   32 type  1   force =    -0.00003421   -0.00004822    0.00018781
     atom   33 type  1   force =    -0.00004466    0.00002397    0.00001850
     atom   34 type  1   force =    -0.00001785   -0.00008283    0.00032194
     atom   35 type  1   force =     0.00008936    0.00008164    0.00031865
     atom   36 type  1   force =    -0.00001683   -0.00006758    0.00043205
     atom   37 type  2   force =    -0.00021691   -0.00032451   -0.00068229
     atom   38 type  2   force =    -0.00041795    0.00168400   -0.00080463
     atom   39 type  2   force =    -0.00140179    0.00099514   -0.00073671
     atom   40 type  3   force =     0.00013668   -0.00019466   -0.00016387
     atom   41 type  3   force =     0.00028423   -0.00003984    0.00037556
     atom   42 type  3   force =    -0.00010983    0.00006102    0.00006154
     atom   43 type  3   force =     0.00193663   -0.00138483   -0.00109206

     Total force =     0.004066     Total SCF correction =     0.000877
     SCF correction compared to forces is large: reduce conv_thr to get better values

[...]

     negative rho (up, down):  1.212E-02 0.000E+00

     negative rho (up, down):  1.212E-02 0.000E+00
 BEEFens 2000 ensemble energies
             -0.607505889486769E+02
             -0.360432790164251E+01
             -0.158299105456008E+02
              0.429932148184052E+02
             -0.221534665119245E+02
             -0.205359819966858E+02
             -0.353134975096438E+02
             -0.866048882951819E+02
             -0.465177573236379E+02
             -0.472872853088961E+02
             -0.369632566394023E+02
              0.231598691100129E+01
              0.405962251096201E+01
              0.759583606857055E+01
              0.265520219732642E+01
              0.475451026721132E+02
             -0.208913216069874E+02
             -0.229831503277487E+02
              0.193122541085286E+02
             -0.112513703745660E+03
              0.536948731590138E+02
             -0.289868508215690E+02
             -0.334858346111467E+01
             -0.114274109030456E+02
             -0.879496460925338E+01
             -0.460974330358457E+01
              0.883711968394014E+02
             -0.187796402826909E+02
             -0.899222759165514E+01
             -0.518940331703554E+02
              0.815726229526497E+02
             -0.186850605633196E+02
             -0.375248741826690E+02
              0.249161469216662E+02
             -0.285316107558799E+01
              0.164552625316974E+02
             -0.484897585422061E+01
              0.107995299373626E+02
              0.289069599229685E+02
             -0.103346837882578E+03
              0.559171698304285E+02
              0.142579163006907E+02
             -0.177320813415781E+01
             -0.361525644751737E+02
              0.123355357077090E+02
             -0.147399348798709E+02
              0.398954235911705E+02
              0.365163688110312E+02
             -0.308060027975557E+02
             -0.275225838375737E+02
             -0.328646078040838E+02
             -0.352723060076476E+02
              0.137014164827510E+02
             -0.491269253133593E+02
              0.115928584274831E+02
              0.623846896959965E+02
              0.636415128625472E+02
              0.356364930109332E+02
              0.154164774458006E+02
              0.271169242894564E+02
[...]
             -0.707059579910224E+02
             -0.836771731041495E+00
             -0.247790638838655E+01
             -0.883329895525264E+01
             -0.182035392078018E+01
             -0.653472459991050E+02
             -0.210300803187715E+02
              0.542710629073157E+01
              0.904435984364039E+01
              0.469462265984440E+02
             -0.398162374262898E+02
              0.657461158158623E+02
             -0.425607381820434E+02
              0.210954021495951E+02
              0.350747187555857E+02

 BEEF-vdW xc energy contributions
           1 :   -783.246851674502
           2 :    719.179676941913
           3 :   -608.487442569722
           4 :    478.489852312295
           5 :   -356.696779368863
           6 :    262.779782333577
           7 :   -204.239307965508
           8 :    176.471212965399
           9 :   -166.792033849217
          10 :    160.565213416866
          11 :   -146.966025430035
          12 :    122.206719345764
          13 :   -89.3751949928874
          14 :    55.5194803635062
          15 :   -27.6629211519401
          16 :    9.55019097595095
          17 :  -0.377533767258910
          18 :   -4.24870447610067
          19 :    9.82982775253595
          20 :   -20.2730532863221
          21 :    36.2058828664890
          22 :   -54.9727627837684
          23 :    72.1503637585397
          24 :   -83.7541494483008
          25 :    88.0513592397400
          26 :   -86.1858120287500
          27 :    81.4228957153073
          28 :   -77.4766990866231
          29 :    76.7556769264442
          30 :   -79.3457798543616
          31 :   -85.9628703250287
          32 :   -65.8048735624136

     Writing output data file ./pwscf.save/

     General routines

     Parallel routines

   This run was terminated on:  18:55:40  26Sep2022

   JOB DONE.