     Program PWSCF v.6.7MaX starts on  3Jan2023 at 22:34:24

     Reading input from ch2ch2oh-ensemble.in
Warning: card &CELL ignored
Warning: card / ignored

     Current dimensions of program PWSCF are:
     Max number of different atomic species (ntypx) = 10
     Max number of k-points (npk) =  40000
     Max angular momentum in pseudopotentials (lmaxx) =  3
     file Pt.pbe-n-kjpaw_psl.1.0.0.UPF: wavefunction(s)  6S 5D renormalized
     file C.pbe-n-kjpaw_psl.1.0.0.UPF: wavefunction(s)  2S 2P renormalized
     file O.pbe-nl-kjpaw_psl.1.0.0.UPF: wavefunction(s)  2S 2P renormalized
     file H.pbe-kjpaw_psl.1.0.0.UPF: wavefunction(s)  1S renormalized

     IMPORTANT: XC functional enforced from input :
     Exchange-correlation= BEEF-VDW
                           (   1   4  43  14   2   0   0)
     Any further DFT definition will be discarded
     Please, verify this is what you really want

     Subspace diagonalization in iterative solution of the eigenvalue problem:
     a serial algorithm will be used

     bravais-lattice index     =            0
     lattice parameter (alat)  =      16.0349  a.u.
     unit-cell volume          =   11763.5949 (a.u.)^3
     number of atoms/cell      =           44
     number of atomic types    =            4
     number of electrons       =       379.00
     number of Kohn-Sham states=          228
     kinetic-energy cutoff     =      60.0000  Ry
     charge density cutoff     =     240.0000  Ry
     scf convergence threshold =      1.0E-06
     mixing beta               =       0.7000
     number of iterations used =            8  local-TF  mixing
     Exchange-correlation= BEEF-VDW
                           (   1   4  43  14   2   0   0)

     celldm(1)=  16.034858  celldm(2)=   0.000000  celldm(3)=   0.000000
     celldm(4)=   0.000000  celldm(5)=   0.000000  celldm(6)=   0.000000

     crystal axes: (cart. coord. in units of alat)
               a(1) = (   1.000000   0.000000   0.000000 )
               a(2) = (   0.500000   0.866025   0.000000 )
               a(3) = (   0.000000   0.000000   3.294686 )

     reciprocal axes: (cart. coord. in units 2 pi/alat)
               b(1) = (  1.000000 -0.577350  0.000000 )
               b(2) = (  0.000000  1.154701  0.000000 )
               b(3) = (  0.000000  0.000000  0.303519 )

     PseudoPot. # 1 for Pt read from file:
     /users/bkreitz1/quantum-espresso/potentials/Pt.pbe-n-kjpaw_psl.1.0.0.UPF
     MD5 check sum: 04dc8a03c51ece93fc7b5889c2958091
     Pseudo is Projector augmented-wave + core cor, Zval = 10.0
     Generated using 'atomic' code by A. Dal Corso  v.6.7MaX
     Shape of augmentation charge: PSQ
     Using radial grid of 1277 points,  6 beta functions with:
                l(1) =   0
                l(2) =   0
                l(3) =   1
                l(4) =   1
                l(5) =   2
                l(6) =   2
     Q(r) pseudized with 0 coefficients

     PseudoPot. # 2 for C  read from file:
     /users/bkreitz1/quantum-espresso/potentials/C.pbe-n-kjpaw_psl.1.0.0.UPF
     MD5 check sum: a169b0ebad56f5ec0d79c4633f80bf22
     Pseudo is Projector augmented-wave + core cor, Zval =  4.0
     Generated using 'atomic' code by A. Dal Corso  v.6.7MaX
     Shape of augmentation charge: PSQ
     Using radial grid of 1073 points,  4 beta functions with:
                l(1) =   0
                l(2) =   0
                l(3) =   1
                l(4) =   1
     Q(r) pseudized with 0 coefficients

     PseudoPot. # 3 for O  read from file:
     /users/bkreitz1/quantum-espresso/potentials/O.pbe-nl-kjpaw_psl.1.0.0.UPF
     MD5 check sum: eef08af8b58d9ec80f8fdb78829eb7cf
     Pseudo is Projector augmented-wave + core cor, Zval =  6.0
     Generated using 'atomic' code by A. Dal Corso  v.6.7MaX
     Shape of augmentation charge: PSQ
     Using radial grid of 1095 points,  4 beta functions with:
                l(1) =   0
                l(2) =   0
                l(3) =   1
                l(4) =   1
     Q(r) pseudized with 0 coefficients

     PseudoPot. # 4 for H  read from file:
     /users/bkreitz1/quantum-espresso/potentials/H.pbe-kjpaw_psl.1.0.0.UPF
     MD5 check sum: ae98473e6dc62675f0d0baffdab24f65
     Pseudo is Projector augmented-wave, Zval =  1.0
     Generated using 'atomic' code by A. Dal Corso  v.6.7MaX
     Shape of augmentation charge: PSQ
     Using radial grid of  929 points,  2 beta functions with:
                l(1) =   0
                l(2) =   0
     Q(r) pseudized with 0 coefficients

     atomic species   valence    mass     pseudopotential
        Pt            10.00   195.08400     Pt( 1.00)
        C              4.00    12.01100     C ( 1.00)
        O              6.00    15.99900     O ( 1.00)
        H              1.00     1.00800     H ( 1.00)

     No symmetry found

   Cartesian axes

     site n.     atom                  positions (alat units)
         1           Pt  tau(   1) = (   0.0000000   0.0000000   1.0017346  )
         2           Pt  tau(   2) = (   0.3333333   0.0000000   1.0017346  )
         3           Pt  tau(   3) = (   0.6666667   0.0000000   1.0017346  )
         4           Pt  tau(   4) = (   0.1666667   0.2886751   1.0017346  )
         5           Pt  tau(   5) = (   0.5000000   0.2886751   1.0017346  )
         6           Pt  tau(   6) = (   0.8333333   0.2886751   1.0017346  )
         7           Pt  tau(   7) = (   0.3333333   0.5773503   1.0017346  )
         8           Pt  tau(   8) = (   0.6666667   0.5773503   1.0017346  )
         9           Pt  tau(   9) = (   1.0000000   0.5773503   1.0017346  )
        10           Pt  tau(  10) = (   0.1666667   0.0962250   1.2739001  )
        11           Pt  tau(  11) = (   0.5000000   0.0962250   1.2739001  )
        12           Pt  tau(  12) = (   0.8333333   0.0962250   1.2739001  )
        13           Pt  tau(  13) = (   0.3333333   0.3849002   1.2739001  )
        14           Pt  tau(  14) = (   0.6666667   0.3849002   1.2739001  )
        15           Pt  tau(  15) = (   1.0000000   0.3849002   1.2739001  )
        16           Pt  tau(  16) = (   0.5000000   0.6735753   1.2739001  )
        17           Pt  tau(  17) = (   0.8333333   0.6735753   1.2739001  )
        18           Pt  tau(  18) = (   1.1666667   0.6735753   1.2739001  )
        19           Pt  tau(  19) = (  -0.0031866   0.1938869   1.5465629  )
        20           Pt  tau(  20) = (   0.3308335   0.1933321   1.5432157  )
        21           Pt  tau(  21) = (   0.6675698   0.1940090   1.5467921  )
        22           Pt  tau(  22) = (   0.1647509   0.4807371   1.5428833  )
        23           Pt  tau(  23) = (   0.4984281   0.4811113   1.5424322  )
        24           Pt  tau(  24) = (   0.8313790   0.4789598   1.5463570  )
        25           Pt  tau(  25) = (   0.3312728   0.7699934   1.5412668  )
        26           Pt  tau(  26) = (   0.6651446   0.7696585   1.5411621  )
        27           Pt  tau(  27) = (   0.9986055   0.7705245   1.5406592  )
        28           Pt  tau(  28) = (  -0.0038686  -0.0014660   1.8136642  )
        29           Pt  tau(  29) = (   0.3301690  -0.0009869   1.8156460  )
        30           Pt  tau(  30) = (   0.6624042   0.0001171   1.8161431  )
        31           Pt  tau(  31) = (   0.1646005   0.2884090   1.8180496  )
        32           Pt  tau(  32) = (   0.4976804   0.2887574   1.8160411  )
        33           Pt  tau(  33) = (   0.8295501   0.2894216   1.8426100  )
        34           Pt  tau(  34) = (   0.3302637   0.5787317   1.8155629  )
        35           Pt  tau(  35) = (   0.6626720   0.5783074   1.8161746  )
        36           Pt  tau(  36) = (   0.9955321   0.5800662   1.8143531  )
        37           C   tau(  37) = (   0.8377496   0.2969240   2.0894423  )
        38           C   tau(  38) = (   0.9861333   0.2323655   2.1647429  )
        39           O   tau(  39) = (   1.1323921   0.3044171   2.1114580  )
        40           H   tau(  40) = (   0.7365502   0.2280402   2.1296745  )
        41           H   tau(  41) = (   0.8186496   0.4203706   2.1210350  )
        42           H   tau(  42) = (   1.0011842   0.1068815   2.1413095  )
        43           H   tau(  43) = (   0.9785414   0.2496245   2.2929457  )
        44           H   tau(  44) = (   1.1230759   0.4180570   2.1224007  )

     number of k points=    13  Marzari-Vanderbilt smearing, width (Ry)=  0.0200
                       cart. coord. in units 2pi/alat
        k(    1) = (   0.0000000   0.0000000   0.0000000), wk =   0.0800000
        k(    2) = (   0.0000000   0.2309401   0.0000000), wk =   0.1600000
        k(    3) = (   0.0000000   0.4618802   0.0000000), wk =   0.1600000
        k(    4) = (   0.2000000  -0.1154701   0.0000000), wk =   0.1600000
        k(    5) = (   0.2000000   0.1154701   0.0000000), wk =   0.1600000
        k(    6) = (   0.2000000   0.3464102   0.0000000), wk =   0.1600000
        k(    7) = (   0.2000000  -0.5773503   0.0000000), wk =   0.1600000
        k(    8) = (   0.2000000  -0.3464102   0.0000000), wk =   0.1600000
        k(    9) = (   0.4000000  -0.2309401   0.0000000), wk =   0.1600000
        k(   10) = (   0.4000000  -0.0000000   0.0000000), wk =   0.1600000
        k(   11) = (   0.4000000   0.2309401   0.0000000), wk =   0.1600000
        k(   12) = (   0.4000000  -0.6928203   0.0000000), wk =   0.1600000
        k(   13) = (   0.4000000  -0.4618802   0.0000000), wk =   0.1600000

     Check: negative core charge=   -0.000002

     Initial potential from superposition of free atoms

     starting charge  378.99376, renormalised to  379.00000

     negative rho (up, down):  1.242E-02 0.000E+00

     %%%%%%%%%%%%%%%%%%%%%%%%%%%%%%%%%%%%%%%%%%%%%%%%%%%%%%%%%%%%%%%%%%%%%%%%
     %                                                                      %
     % You are using vdW-DF, which was implemented by the Thonhauser group. %
     % Please cite the following two papers that made this development      %
     % possible and the two reviews that describe the various versions:     %
     %                                                                      %
     %   T. Thonhauser et al., PRL 115, 136402 (2015).                      %
     %   T. Thonhauser et al., PRB 76, 125112 (2007).                       %
     %   K. Berland et al., Rep. Prog. Phys. 78, 066501 (2015).             %
     %   D.C. Langreth et al., J. Phys.: Condens. Matter 21, 084203 (2009). %
     %                                                                      %
     %                                                                      %
     % If you are calculating the stress with vdW-DF, please also cite:     %
     %                                                                      %
     %   R. Sabatini et al., J. Phys.: Condens. Matter 24, 424209 (2012).   %
     %                                                                      %
     %%%%%%%%%%%%%%%%%%%%%%%%%%%%%%%%%%%%%%%%%%%%%%%%%%%%%%%%%%%%%%%%%%%%%%%%

     Starting wfcs are  341 randomized atomic wfcs
     Checking if some PAW data can be deallocated...

     Self-consistent Calculation

     iteration #  1     ecut=    60.00 Ry     beta= 0.70
     Davidson diagonalization with overlap
     ethr =  1.00E-02,  avg # of iterations =  2.5

     Threshold (ethr) on eigenvalues was too large:
     Diagonalizing with lowered threshold

     Davidson diagonalization with overlap
     ethr =  6.99E-04,  avg # of iterations =  3.2

[...]

     total energy              =  -27840.64286492 Ry
     estimated scf accuracy    <       2.87256301 Ry

[...]

     iteration #  4     ecut=    60.00 Ry     beta= 0.70
     Davidson diagonalization with overlap
     c_bands:  1 eigenvalues not converged
     ethr =  9.76E-05,  avg # of iterations = 10.5

[...]

     iteration # 10     ecut=    60.00 Ry     beta= 0.70
     Davidson diagonalization with overlap
     c_bands:  1 eigenvalues not converged
     ethr =  5.47E-07,  avg # of iterations = 12.2

[...]

     total energy              =  -27840.88031776 Ry
     estimated scf accuracy    <       0.00000288 Ry

     iteration # 20     ecut=    60.00 Ry     beta= 0.70
     Davidson diagonalization with overlap
     ethr =  7.59E-10,  avg # of iterations =  2.0

[...]

     End of self-consistent calculation

          k = 0.0000 0.0000 0.0000 ( 92447 PWs)   bands (ev):

   -19.7494 -12.3774  -9.2005  -6.9470  -6.2187  -5.6506  -5.1924  -4.6353
    -4.5644  -4.5414  -4.5381  -4.5277  -4.5205  -4.5059  -4.4935  -4.4875
    -3.9876  -3.9809  -3.9724  -3.9681  -3.9601  -3.9538  -3.5203  -3.5149
    -3.5057  -3.5027  -3.4950  -3.4805  -3.3640  -3.3098  -3.2902  -3.2829
    -3.2783  -3.2725  -3.1962  -3.0723  -3.0630  -3.0600  -3.0567  -3.0498
    -3.0427  -3.0356  -3.0330  -3.0200  -3.0044  -2.9936  -2.9834  -2.6923
    -2.4519  -2.4366  -2.4333  -2.4159  -2.4086  -2.3629  -2.3581  -2.3511
    -2.3360  -2.3059  -2.2208  -2.1897  -2.1519  -2.0897  -1.8052  -1.6253
    -1.6230  -1.6196  -1.6020  -1.5842  -1.5816  -1.5166  -1.4541  -1.4533
    -1.4402  -1.4361  -1.4199  -1.4124  -1.4073  -1.3966  -1.3865  -1.3737
    -1.3636  -1.3540  -1.3297  -1.3267  -1.3069  -1.2569  -1.2103  -1.2026
    -1.1990  -1.1874  -1.1182  -1.0461  -1.0371  -1.0302  -1.0036  -0.9866
    -0.9819  -0.9514  -0.9470  -0.9087  -0.8848  -0.8579  -0.8482  -0.8120
    -0.7723  -0.7717  -0.7324  -0.7307  -0.7018  -0.6731  -0.6024  -0.5846
    -0.5737  -0.5701  -0.5444  -0.4807  -0.1414  -0.1310  -0.1032  -0.0997
    -0.0817  -0.0812  -0.0750  -0.0588  -0.0243  -0.0096  -0.0042   0.0534
     0.0722   0.0815   0.0925   0.2009   0.2182   0.2302   0.2834   0.2924
     0.3248   0.3632   0.3722   0.3919   0.4123   0.4158   0.4244   0.6329
     0.6434   0.6498   0.6601   0.6616   0.6777   0.7218   0.7267   0.9032
     0.9111   0.9198   0.9255   0.9505   0.9853   1.0677   1.0729   1.0850
     1.0946   1.1004   1.1149   1.1211   1.1284   1.1296   1.1334   1.1703
     1.2186   1.2327   1.2370   1.2591   1.2636   1.2695   1.2885   1.3155
     1.3478   1.3512   1.3569   1.3612   1.3810   1.3862   1.4074   1.4108
     1.4745   1.4797   1.4882   1.4908   1.4983   1.5062   1.5200   1.5783
     1.5990   1.6024   1.6275   1.6292   1.6744   1.7989   1.8154   1.8961
     1.9082   1.9302   1.9404   1.9425   1.9500   2.2375   2.7158   2.7880
     2.8052   2.8100   2.8376   3.0364   4.0788   5.0467   5.0791   5.1180
     5.1308   5.2883   5.5734   6.0366   6.4394   6.6946   6.7118   6.7215
     6.7373   6.7519   6.7583   6.8211

[...]

          k = 0.4000-0.4619 0.0000 ( 92338 PWs)   bands (ev):

   -19.7494 -12.3776  -9.1997  -6.2314  -5.9859  -5.9528  -5.3674  -5.2140
    -4.7456  -4.7278  -4.5859  -4.2213  -4.2059  -4.0625  -4.0322  -3.9314
    -3.9182  -3.8229  -3.8101  -3.7145  -3.7076  -3.6900  -3.6602  -3.6462
    -3.6438  -3.6215  -3.5207  -3.4903  -3.4781  -3.4538  -3.4377  -3.3628
    -3.3098  -3.2565  -3.2203  -3.1554  -3.0912  -3.0818  -3.0719  -3.0497
    -3.0375  -2.9624  -2.9479  -2.8672  -2.8354  -2.7025  -2.6428  -2.6387
    -2.5613  -2.5186  -2.4837  -2.4471  -2.4162  -2.3343  -2.3047  -2.2592
    -2.2371  -2.2165  -2.1760  -2.1554  -2.1359  -2.0493  -2.0339  -2.0131
    -2.0057  -1.9910  -1.9806  -1.9709  -1.9346  -1.8966  -1.8487  -1.7828
    -1.7477  -1.7223  -1.6707  -1.6181  -1.5864  -1.5605  -1.5507  -1.5146
    -1.4840  -1.4700  -1.3959  -1.3799  -1.3676  -1.3457  -1.3288  -1.3042
    -1.2715  -1.2157  -1.1913  -1.1864  -1.1328  -1.1224  -1.0839  -1.0339
    -0.9890  -0.9530  -0.9353  -0.9300  -0.9157  -0.8887  -0.8793  -0.8426
    -0.8327  -0.8229  -0.8090  -0.7857  -0.7733  -0.7241  -0.7173  -0.7075
    -0.7000  -0.6858  -0.6613  -0.6294  -0.6043  -0.5725  -0.5061  -0.3934
    -0.3332  -0.3016  -0.2960  -0.2075  -0.1854  -0.1574  -0.1304  -0.1089
    -0.0928  -0.0678  -0.0519  -0.0293   0.0274   0.0528   0.0665   0.1201
     0.1314   0.1716   0.1956   0.2444   0.3455   0.3832   0.4225   0.4617
     0.4797   0.4942   0.5600   0.5669   0.5891   0.6088   0.6170   0.6609
     0.6753   0.7028   0.7600   0.7851   0.8212   0.8405   0.8564   0.8711
     0.8930   0.9162   1.0024   1.0391   1.1189   1.1494   1.2177   1.2681
     1.3075   1.3165   1.3853   1.4360   1.4559   1.4816   1.5525   1.5955
     1.6134   1.6337   1.6592   1.6759   1.6788   1.7113   1.7517   1.8145
     1.8211   1.8287   1.8458   1.8724   1.8797   1.9303   1.9527   2.0507
     2.0668   2.0918   2.1026   2.1162   2.1584   2.2256   2.2806   2.4076
     2.9445   3.2406   3.2420   3.4410   3.5069   3.6165   3.6222   3.6587
     3.8581   4.2411   4.2579   4.3970   4.7097   4.7358   4.8340   4.8420
     4.8629   5.0815   5.1544   5.1932   5.2587   5.6511   5.6763   5.7921
     6.1220   6.3107   6.3319   6.3481

     the Fermi energy is     1.8647 ev

!    total energy              =  -27840.88031763 Ry

     total all-electron energy =  -1326952.020806 Ry
     estimated scf accuracy    <       0.00000072 Ry
     smearing contrib. (-TS)   =       0.00100190 Ry
     internal energy E=F+TS    =  -27840.88131953 Ry

     The total energy is F=E-TS. E is the sum of the following terms:
     one-electron contribution =  -29236.11587963 Ry
     hartree contribution      =   14923.72529133 Ry
     xc contribution           =    -911.19923880 Ry
     ewald contribution        =   12879.89586331 Ry
     one-center paw contrib.   =  -25497.18735574 Ry

     convergence has been achieved in  20 iterations

[...]

     Forces acting on atoms (cartesian axes, Ry/au):

     atom    1 type  1   force =     0.00052358    0.00002185   -0.00339368
     atom    2 type  1   force =     0.00002876   -0.00009533   -0.00684791
     atom    3 type  1   force =    -0.00012192    0.00006051   -0.00573382
     atom    4 type  1   force =     0.00064836   -0.00069563   -0.00379912
     atom    5 type  1   force =    -0.00004508   -0.00087145   -0.00305848
     atom    6 type  1   force =     0.00005110   -0.00046163   -0.00326289
     atom    7 type  1   force =     0.00014687    0.00019032   -0.00332694
     atom    8 type  1   force =     0.00052885    0.00058358   -0.00337483
     atom    9 type  1   force =     0.00000770    0.00075746   -0.00314925
     atom   10 type  1   force =     0.00005304    0.00082666   -0.00007105
     atom   11 type  1   force =    -0.00180609    0.00151318    0.00178433
     atom   12 type  1   force =    -0.00132298    0.00275207    0.00923439
     atom   13 type  1   force =    -0.00100022   -0.00085048    0.00298176
     atom   14 type  1   force =     0.00074449   -0.00101519    0.00939155
     atom   15 type  1   force =    -0.00184970   -0.00110326    0.00933735
     atom   16 type  1   force =     0.00006416   -0.00058103    0.00123464
     atom   17 type  1   force =    -0.00090417   -0.00014875   -0.00118273
     atom   18 type  1   force =    -0.00106422   -0.00025511    0.00208905
     atom   19 type  1   force =     0.00050220   -0.00030029    0.00025417
     atom   20 type  1   force =     0.00005351    0.00000685   -0.00006339
     atom   21 type  1   force =    -0.00028069   -0.00035924    0.00017807
     atom   22 type  1   force =    -0.00005180    0.00009928    0.00019286
     atom   23 type  1   force =     0.00026967   -0.00002966   -0.00012781
     atom   24 type  1   force =     0.00017096    0.00049588   -0.00014255
     atom   25 type  1   force =     0.00023890    0.00015785   -0.00010960
     atom   26 type  1   force =     0.00013178    0.00003014   -0.00000835
     atom   27 type  1   force =     0.00022766   -0.00003444   -0.00013172
     atom   28 type  1   force =     0.00063381   -0.00011302    0.00041871
     atom   29 type  1   force =     0.00054460    0.00029219    0.00034363
     atom   30 type  1   force =     0.00056289   -0.00028020    0.00078507
     atom   31 type  1   force =     0.00041629    0.00009228    0.00076753
     atom   32 type  1   force =    -0.00005839    0.00008416    0.00023954
     atom   33 type  1   force =     0.00049809   -0.00013602   -0.00020288
     atom   34 type  1   force =     0.00041629   -0.00041546    0.00047148
     atom   35 type  1   force =     0.00024413    0.00012753    0.00027333
     atom   36 type  1   force =     0.00092954   -0.00018020    0.00039194
     atom   37 type  2   force =    -0.00176601   -0.00101354   -0.00342757
     atom   38 type  2   force =     0.00104842    0.00079128   -0.00072729
     atom   39 type  3   force =    -0.00094536    0.00209632    0.00119054
     atom   40 type  4   force =     0.00004118    0.00010147    0.00027938
     atom   41 type  4   force =     0.00043828    0.00008559    0.00037021
     atom   42 type  4   force =     0.00001558    0.00048362    0.00018398
     atom   43 type  4   force =     0.00012185   -0.00039641    0.00035703
     atom   44 type  4   force =     0.00091413   -0.00231373   -0.00060869

     Total force =     0.006221     Total SCF correction =     0.001111
     SCF correction compared to forces is large: reduce conv_thr to get better values

[...]

     negative rho (up, down):  1.373E-02 0.000E+00

     negative rho (up, down):  1.373E-02 0.000E+00
 BEEFens 2000 ensemble energies
             -0.610265521226377E+02
             -0.362769148374096E+01
             -0.159033058074609E+02
              0.431819201135440E+02
             -0.222318556379540E+02
             -0.206181589491915E+02
             -0.354881809472065E+02
             -0.870173910235308E+02
             -0.466977611365848E+02
             -0.474706578906266E+02
             -0.371295534233929E+02
              0.231825917048255E+01
              0.409075821510069E+01
              0.759411741618078E+01
              0.267775337356994E+01
              0.477502669362605E+02
             -0.209835438469480E+02
             -0.230712339824765E+02
              0.194170258518058E+02
             -0.112991454395750E+03
              0.539433645034984E+02
             -0.290856489891843E+02
             -0.337458687362824E+01
             -0.114606943425322E+02
             -0.881832174439683E+01
             -0.465317721843630E+01
              0.887506241749228E+02
             -0.188546426253291E+02
             -0.904552574475838E+01
             -0.521469706294724E+02
              0.819127925884929E+02
             -0.187473675767703E+02
             -0.377134956690845E+02
              0.250203742301782E+02
             -0.285941799851173E+01
              0.165609646771693E+02
             -0.484590634304328E+01
              0.108094358597003E+02
              0.290425776110715E+02
             -0.103803914838047E+03
              0.561452787836516E+02
              0.143122572357129E+02
             -0.179110502374806E+01
             -0.363130897389728E+02
              0.123846181414831E+02
             -0.147886049855167E+02
              0.401075163091239E+02
              0.366687243813458E+02
             -0.309106321133953E+02
             -0.276725413234113E+02
             -0.330074770492093E+02
             -0.354191759180663E+02
              0.137578992293363E+02
             -0.493654849560642E+02
              0.116511376608958E+02
              0.626471397862580E+02
              0.639467789465561E+02
              0.357631889895991E+02
              0.154944725936745E+02
              0.272380603255580E+02
[...]
             -0.710231970038820E+02
             -0.853767883712862E+00
             -0.247012399857691E+01
             -0.888312136024842E+01
             -0.179551488110440E+01
             -0.656304185429693E+02
             -0.211088204511370E+02
              0.546266397288103E+01
              0.907502787497975E+01
              0.471593961664043E+02
             -0.400042325165438E+02
              0.660026516552382E+02
             -0.427368362215491E+02
              0.211923648769528E+02
              0.352581004064938E+02

 BEEF-vdW xc energy contributions
           1 :   -786.683196790215
           2 :    722.420566863967
           3 :   -611.257614739131
           4 :    480.542063112795
           5 :   -357.945762419855
           6 :    263.333807557192
           7 :   -204.324285483249
           8 :    176.318933476610
           9 :   -166.562076696174
          10 :    160.328956406086
          11 :   -146.729245447209
          12 :    121.947187686703
          13 :   -89.0797958728701
          14 :    55.2018293899581
          15 :   -27.3570254177395
          16 :    9.28991374047291
          17 :  -0.175062337358327
          18 :   -4.41153888675365
          19 :    9.99125240614239
          20 :   -20.4645955386129
          21 :    36.4282539869712
          22 :   -55.1931589712310
          23 :    72.3194296706708
          24 :   -83.8299313718007
          25 :    88.0204957198509
          26 :   -86.0717104508473
          27 :    81.2758466170665
          28 :   -77.3448338855233
          29 :    76.6510083364092
          30 :   -79.2315023832748
          31 :   -86.3277559580048
          32 :   -66.0953797382233

     Writing output data file ./pwscf.save/

     General routines

     Parallel routines

   This run was terminated on:   2:53:54   4Jan2023

   JOB DONE.