     Program PWSCF v.6.7MaX starts on  3Jan2023 at 22:36:26

     Reading input from ch2chch2-mono-ensemble.in
Warning: card &CELL ignored
Warning: card / ignored

     Current dimensions of program PWSCF are:
     Max number of different atomic species (ntypx) = 10
     Max number of k-points (npk) =  40000
     Max angular momentum in pseudopotentials (lmaxx) =  3
     file Pt.pbe-n-kjpaw_psl.1.0.0.UPF: wavefunction(s)  6S 5D renormalized
     file C.pbe-n-kjpaw_psl.1.0.0.UPF: wavefunction(s)  2S 2P renormalized
     file H.pbe-kjpaw_psl.1.0.0.UPF: wavefunction(s)  1S renormalized

     IMPORTANT: XC functional enforced from input :
     Exchange-correlation= BEEF-VDW
                           (   1   4  43  14   2   0   0)
     Any further DFT definition will be discarded
     Please, verify this is what you really want

     Subspace diagonalization in iterative solution of the eigenvalue problem:
     a serial algorithm will be used

     bravais-lattice index     =            0
     lattice parameter (alat)  =      16.0349  a.u.
     unit-cell volume          =   11619.6485 (a.u.)^3
     number of atoms/cell      =           44
     number of atomic types    =            3
     number of electrons       =       377.00
     number of Kohn-Sham states=          227
     kinetic-energy cutoff     =      60.0000  Ry
     charge density cutoff     =     240.0000  Ry
     scf convergence threshold =      1.0E-06
     mixing beta               =       0.7000
     number of iterations used =            8  local-TF  mixing
     Exchange-correlation= BEEF-VDW
                           (   1   4  43  14   2   0   0)

     celldm(1)=  16.034858  celldm(2)=   0.000000  celldm(3)=   0.000000
     celldm(4)=   0.000000  celldm(5)=   0.000000  celldm(6)=   0.000000

     crystal axes: (cart. coord. in units of alat)
               a(1) = (   1.000000   0.000000   0.000000 )
               a(2) = (   0.500000   0.866025   0.000000 )
               a(3) = (   0.000000   0.000000   3.254371 )

     reciprocal axes: (cart. coord. in units 2 pi/alat)
               b(1) = (  1.000000 -0.577350  0.000000 )
               b(2) = (  0.000000  1.154701  0.000000 )
               b(3) = (  0.000000  0.000000  0.307279 )

     PseudoPot. # 1 for Pt read from file:
     /users/bkreitz1/quantum-espresso/potentials/Pt.pbe-n-kjpaw_psl.1.0.0.UPF
     MD5 check sum: 04dc8a03c51ece93fc7b5889c2958091
     Pseudo is Projector augmented-wave + core cor, Zval = 10.0
     Generated using 'atomic' code by A. Dal Corso  v.6.7MaX
     Shape of augmentation charge: PSQ
     Using radial grid of 1277 points,  6 beta functions with:
                l(1) =   0
                l(2) =   0
                l(3) =   1
                l(4) =   1
                l(5) =   2
                l(6) =   2
     Q(r) pseudized with 0 coefficients

     PseudoPot. # 2 for C  read from file:
     /users/bkreitz1/quantum-espresso/potentials/C.pbe-n-kjpaw_psl.1.0.0.UPF
     MD5 check sum: a169b0ebad56f5ec0d79c4633f80bf22
     Pseudo is Projector augmented-wave + core cor, Zval =  4.0
     Generated using 'atomic' code by A. Dal Corso  v.6.7MaX
     Shape of augmentation charge: PSQ
     Using radial grid of 1073 points,  4 beta functions with:
                l(1) =   0
                l(2) =   0
                l(3) =   1
                l(4) =   1
     Q(r) pseudized with 0 coefficients

     PseudoPot. # 3 for H  read from file:
     /users/bkreitz1/quantum-espresso/potentials/H.pbe-kjpaw_psl.1.0.0.UPF
     MD5 check sum: ae98473e6dc62675f0d0baffdab24f65
     Pseudo is Projector augmented-wave, Zval =  1.0
     Generated using 'atomic' code by A. Dal Corso  v.6.7MaX
     Shape of augmentation charge: PSQ
     Using radial grid of  929 points,  2 beta functions with:
                l(1) =   0
                l(2) =   0
     Q(r) pseudized with 0 coefficients

     atomic species   valence    mass     pseudopotential
        Pt            10.00   195.08400     Pt( 1.00)
        C              4.00    12.01100     C ( 1.00)
        H              1.00     1.00800     H ( 1.00)

     No symmetry found

   Cartesian axes

     site n.     atom                  positions (alat units)
         1           Pt  tau(   1) = (   0.0000000   0.0000000   1.0017346  )
         2           Pt  tau(   2) = (   0.3333333   0.0000000   1.0017346  )
         3           Pt  tau(   3) = (   0.6666667   0.0000000   1.0017346  )
         4           Pt  tau(   4) = (   0.1666667   0.2886751   1.0017346  )
         5           Pt  tau(   5) = (   0.5000000   0.2886751   1.0017346  )
         6           Pt  tau(   6) = (   0.8333333   0.2886751   1.0017346  )
         7           Pt  tau(   7) = (   0.3333333   0.5773503   1.0017346  )
         8           Pt  tau(   8) = (   0.6666667   0.5773503   1.0017346  )
         9           Pt  tau(   9) = (   1.0000000   0.5773503   1.0017346  )
        10           Pt  tau(  10) = (   0.1666667   0.0962250   1.2739001  )
        11           Pt  tau(  11) = (   0.5000000   0.0962250   1.2739001  )
        12           Pt  tau(  12) = (   0.8333333   0.0962250   1.2739001  )
        13           Pt  tau(  13) = (   0.3333333   0.3849002   1.2739001  )
        14           Pt  tau(  14) = (   0.6666667   0.3849002   1.2739001  )
        15           Pt  tau(  15) = (   1.0000000   0.3849002   1.2739001  )
        16           Pt  tau(  16) = (   0.5000000   0.6735753   1.2739001  )
        17           Pt  tau(  17) = (   0.8333333   0.6735753   1.2739001  )
        18           Pt  tau(  18) = (   1.1666667   0.6735753   1.2739001  )
        19           Pt  tau(  19) = (   0.0013716   0.1928853   1.5412279  )
        20           Pt  tau(  20) = (   0.3367070   0.1943870   1.5470301  )
        21           Pt  tau(  21) = (   0.6664777   0.1938597   1.5460779  )
        22           Pt  tau(  22) = (   0.1681195   0.4816272   1.5419465  )
        23           Pt  tau(  23) = (   0.5012406   0.4794950   1.5467858  )
        24           Pt  tau(  24) = (   0.8344647   0.4814460   1.5419021  )
        25           Pt  tau(  25) = (   0.3345792   0.7698850   1.5419981  )
        26           Pt  tau(  26) = (   0.6680655   0.7705091   1.5412566  )
        27           Pt  tau(  27) = (   1.0013163   0.7707494   1.5422875  )
        28           Pt  tau(  28) = (   0.0033816   0.0009927   1.8160215  )
        29           Pt  tau(  29) = (   0.3360871   0.0005506   1.8160213  )
        30           Pt  tau(  30) = (   0.6703624   0.0010315   1.8161057  )
        31           Pt  tau(  31) = (   0.1696681   0.2893421   1.8159462  )
        32           Pt  tau(  32) = (   0.5045704   0.2896967   1.8418640  )
        33           Pt  tau(  33) = (   0.8376224   0.2894712   1.8154756  )
        34           Pt  tau(  34) = (   0.3364353   0.5780243   1.8171194  )
        35           Pt  tau(  35) = (   0.6710572   0.5797956   1.8150543  )
        36           Pt  tau(  36) = (   1.0030794   0.5786997   1.8153024  )
        37           C   tau(  37) = (   0.5090423   0.2893156   2.0927135  )
        38           C   tau(  38) = (   0.4205723   0.4261179   2.1504987  )
        39           C   tau(  39) = (   0.2696893   0.4192618   2.2011835  )
        40           H   tau(  40) = (   0.6342932   0.2932597   2.1207343  )
        41           H   tau(  41) = (   0.4566032   0.1766749   2.1252578  )
        42           H   tau(  42) = (   0.4826048   0.5382425   2.1540205  )
        43           H   tau(  43) = (   0.2087118   0.5230223   2.2435699  )
        44           H   tau(  44) = (   0.2045805   0.3091512   2.2017162  )

     number of k points=    13  Marzari-Vanderbilt smearing, width (Ry)=  0.0200
                       cart. coord. in units 2pi/alat
        k(    1) = (   0.0000000   0.0000000   0.0000000), wk =   0.0800000
        k(    2) = (   0.0000000   0.2309401   0.0000000), wk =   0.1600000
        k(    3) = (   0.0000000   0.4618802   0.0000000), wk =   0.1600000
        k(    4) = (   0.2000000  -0.1154701   0.0000000), wk =   0.1600000
        k(    5) = (   0.2000000   0.1154701   0.0000000), wk =   0.1600000
        k(    6) = (   0.2000000   0.3464102   0.0000000), wk =   0.1600000
        k(    7) = (   0.2000000  -0.5773503   0.0000000), wk =   0.1600000
        k(    8) = (   0.2000000  -0.3464102   0.0000000), wk =   0.1600000
        k(    9) = (   0.4000000  -0.2309401   0.0000000), wk =   0.1600000
        k(   10) = (   0.4000000  -0.0000000   0.0000000), wk =   0.1600000
        k(   11) = (   0.4000000   0.2309401   0.0000000), wk =   0.1600000
        k(   12) = (   0.4000000  -0.6928203   0.0000000), wk =   0.1600000
        k(   13) = (   0.4000000  -0.4618802   0.0000000), wk =   0.1600000

     Check: negative core charge=   -0.000002

     Initial potential from superposition of free atoms

     starting charge  376.99372, renormalised to  377.00000

     negative rho (up, down):  1.123E-02 0.000E+00

     %%%%%%%%%%%%%%%%%%%%%%%%%%%%%%%%%%%%%%%%%%%%%%%%%%%%%%%%%%%%%%%%%%%%%%%%
     %                                                                      %
     % You are using vdW-DF, which was implemented by the Thonhauser group. %
     % Please cite the following two papers that made this development      %
     % possible and the two reviews that describe the various versions:     %
     %                                                                      %
     %   T. Thonhauser et al., PRL 115, 136402 (2015).                      %
     %   T. Thonhauser et al., PRB 76, 125112 (2007).                       %
     %   K. Berland et al., Rep. Prog. Phys. 78, 066501 (2015).             %
     %   D.C. Langreth et al., J. Phys.: Condens. Matter 21, 084203 (2009). %
     %                                                                      %
     %                                                                      %
     % If you are calculating the stress with vdW-DF, please also cite:     %
     %                                                                      %
     %   R. Sabatini et al., J. Phys.: Condens. Matter 24, 424209 (2012).   %
     %                                                                      %
     %%%%%%%%%%%%%%%%%%%%%%%%%%%%%%%%%%%%%%%%%%%%%%%%%%%%%%%%%%%%%%%%%%%%%%%%

     Starting wfcs are  341 randomized atomic wfcs
     Checking if some PAW data can be deallocated...

     Self-consistent Calculation

     iteration #  1     ecut=    60.00 Ry     beta= 0.70
     Davidson diagonalization with overlap
     ethr =  1.00E-02,  avg # of iterations =  2.7

[...]

     total energy              =  -27816.68105506 Ry
     estimated scf accuracy    <       4.25091963 Ry

[...]

     iteration #  6     ecut=    60.00 Ry     beta= 0.70
     Davidson diagonalization with overlap
     c_bands:  2 eigenvalues not converged
     c_bands:  1 eigenvalues not converged
     c_bands:  2 eigenvalues not converged
     ethr =  1.52E-05,  avg # of iterations =  9.4

[...]

     iteration #  8     ecut=    60.00 Ry     beta= 0.70
     Davidson diagonalization with overlap
     c_bands:  1 eigenvalues not converged
     c_bands:  1 eigenvalues not converged
     ethr =  2.33E-06,  avg # of iterations = 13.4

[...]

     total energy              =  -27817.36135254 Ry
     estimated scf accuracy    <       0.00000257 Ry

     iteration # 19     ecut=    60.00 Ry     beta= 0.70
     Davidson diagonalization with overlap
     ethr =  6.81E-10,  avg # of iterations =  4.2

[...]

     End of self-consistent calculation

          k = 0.0000 0.0000 0.0000 ( 91161 PWs)   bands (ev):

   -13.3740 -10.4773  -7.4018  -6.9233  -5.6411  -5.2891  -4.5661  -4.5250
    -4.5165  -4.5141  -4.5031  -4.4937  -4.4811  -4.4784  -4.2301  -3.9677
    -3.9579  -3.9537  -3.9509  -3.9397  -3.9376  -3.5090  -3.4913  -3.4877
    -3.4770  -3.4760  -3.4678  -3.3417  -3.2804  -3.2678  -3.2627  -3.2598
    -3.2568  -3.1535  -3.0460  -3.0375  -3.0339  -3.0321  -3.0275  -3.0222
    -3.0199  -3.0172  -2.9980  -2.9892  -2.9691  -2.9610  -2.6272  -2.4291
    -2.4185  -2.4116  -2.3866  -2.3710  -2.3568  -2.3328  -2.3314  -2.3008
    -2.2870  -2.2259  -2.1912  -2.1658  -2.1071  -1.9885  -1.6660  -1.6060
    -1.5997  -1.5831  -1.5710  -1.5604  -1.5219  -1.4264  -1.4251  -1.4204
    -1.4182  -1.3966  -1.3853  -1.3805  -1.3745  -1.3684  -1.3553  -1.3469
    -1.3415  -1.3135  -1.3121  -1.2874  -1.2047  -1.1918  -1.1876  -1.1816
    -1.1665  -1.0912  -1.0318  -1.0146  -1.0128  -0.9849  -0.9741  -0.9640
    -0.9288  -0.9256  -0.8740  -0.8657  -0.8198  -0.8144  -0.7566  -0.7551
    -0.7172  -0.7166  -0.6794  -0.6685  -0.6221  -0.5714  -0.5613  -0.5525
    -0.5339  -0.5054  -0.3302  -0.1437  -0.1027  -0.0981  -0.0707  -0.0596
    -0.0540  -0.0517  -0.0071   0.0054   0.0070   0.0441   0.0828   0.0848
     0.1060   0.1549   0.2289   0.2453   0.2544   0.3070   0.3170   0.3721
     0.3928   0.4084   0.4276   0.4310   0.4414   0.5320   0.6578   0.6594
     0.6728   0.6795   0.6799   0.7012   0.7424   0.7527   0.9200   0.9270
     0.9352   0.9448   0.9521   1.0115   1.0944   1.0970   1.1056   1.1151
     1.1171   1.1303   1.1349   1.1431   1.1490   1.1564   1.1752   1.2328
     1.2605   1.2662   1.2697   1.2815   1.2897   1.2986   1.3245   1.3722
     1.3783   1.3832   1.3859   1.4046   1.4134   1.4196   1.4293   1.4933
     1.4977   1.5137   1.5176   1.5215   1.5369   1.5391   1.6097   1.6190
     1.6220   1.6426   1.6462   1.7509   1.8157   1.8356   1.9173   1.9260
     1.9525   1.9583   1.9623   1.9687   2.2424   2.7598   2.8173   2.8243
     2.8290   2.8428   2.9553   3.9331   5.0615   5.1072   5.1259   5.1545
     5.1791   5.6412   5.7836   6.3662   6.5820   6.7130   6.7475   6.7567
     6.7692   6.7722   6.8170

[...]

          k = 0.4000-0.4619 0.0000 ( 91184 PWs)   bands (ev):

   -13.3738 -10.4779  -7.4006  -5.9666  -5.9461  -5.3569  -5.2877  -4.7231
    -4.7157  -4.2468  -4.2012  -4.1770  -4.0490  -4.0155  -3.9165  -3.9017
    -3.7975  -3.7893  -3.7028  -3.6886  -3.6690  -3.6428  -3.6357  -3.6232
    -3.6097  -3.4975  -3.4665  -3.4626  -3.4266  -3.4172  -3.3452  -3.2501
    -3.2212  -3.2009  -3.1578  -3.0669  -3.0648  -3.0516  -3.0307  -3.0278
    -2.9424  -2.9142  -2.8318  -2.8196  -2.6793  -2.6267  -2.5954  -2.5255
    -2.5020  -2.4590  -2.4232  -2.3963  -2.3313  -2.2848  -2.2399  -2.2270
    -2.2006  -2.1849  -2.1514  -2.1310  -2.0834  -2.0132  -2.0078  -1.9851
    -1.9794  -1.9693  -1.9549  -1.9246  -1.9026  -1.8549  -1.7744  -1.7441
    -1.7077  -1.6897  -1.5905  -1.5638  -1.5420  -1.5256  -1.5012  -1.4755
    -1.4530  -1.4348  -1.3557  -1.3497  -1.3313  -1.2961  -1.2887  -1.2441
    -1.2083  -1.1601  -1.1337  -1.1236  -1.0989  -1.0689  -0.9988  -0.9472
    -0.9324  -0.9129  -0.9043  -0.8767  -0.8637  -0.8488  -0.8235  -0.8054
    -0.7934  -0.7709  -0.7565  -0.7232  -0.7072  -0.6966  -0.6931  -0.6738
    -0.6691  -0.6479  -0.6054  -0.5917  -0.5521  -0.3987  -0.3499  -0.2814
    -0.2735  -0.2045  -0.1827  -0.1517  -0.1314  -0.1083  -0.0817  -0.0673
    -0.0455  -0.0216   0.0375   0.0558   0.0738   0.0977   0.1268   0.1890
     0.2163   0.2534   0.3326   0.3728   0.4103   0.4502   0.4955   0.5033
     0.5348   0.5770   0.5929   0.6106   0.6290   0.6522   0.6784   0.6919
     0.7385   0.7813   0.8034   0.8445   0.8642   0.8792   0.8950   0.9122
     0.9530   1.0322   1.0573   1.1565   1.1705   1.2469   1.2842   1.3208
     1.3321   1.4063   1.4498   1.4550   1.4910   1.5611   1.6121   1.6307
     1.6570   1.6768   1.6782   1.7072   1.7230   1.7495   1.8286   1.8393
     1.8573   1.8745   1.8870   1.8931   1.9321   1.9657   2.0733   2.0810
     2.1054   2.1091   2.1208   2.1767   2.2310   2.2992   2.4319   2.9281
     3.2600   3.2622   3.4715   3.5111   3.6331   3.6512   3.6707   3.8491
     4.2460   4.2697   4.3158   4.7120   4.7380   4.8470   4.8634   4.8893
     5.0325   5.1563   5.2355   5.3740   5.6180   5.6871   5.7668   6.0452
     6.2477   6.3625   6.3722

     the Fermi energy is     1.8811 ev

!    total energy              =  -27817.36135235 Ry

     total all-electron energy =  -1326877.419043 Ry
     estimated scf accuracy    <       0.00000094 Ry
     smearing contrib. (-TS)   =       0.00260596 Ry
     internal energy E=F+TS    =  -27817.36395831 Ry

     The total energy is F=E-TS. E is the sum of the following terms:
     one-electron contribution =  -28253.98490139 Ry
     hartree contribution      =   14431.67453021 Ry
     xc contribution           =    -908.17487239 Ry
     ewald contribution        =   12406.72229414 Ry
     one-center paw contrib.   =  -25493.60100888 Ry

     convergence has been achieved in  19 iterations

[...]

     Forces acting on atoms (cartesian axes, Ry/au):

     atom    1 type  1   force =    -0.00059299    0.00023649   -0.00721732
     atom    2 type  1   force =    -0.00066314   -0.00019048   -0.00331477
     atom    3 type  1   force =     0.00087835    0.00006013   -0.00368174
     atom    4 type  1   force =    -0.00045449   -0.00051631   -0.00337003
     atom    5 type  1   force =    -0.00030049    0.00000693   -0.00334172
     atom    6 type  1   force =     0.00019241   -0.00106577   -0.00421762
     atom    7 type  1   force =     0.00003255    0.00025095   -0.00360256
     atom    8 type  1   force =    -0.00035716    0.00019017   -0.00334502
     atom    9 type  1   force =    -0.00019786   -0.00019160   -0.00319276
     atom   10 type  1   force =     0.00116135    0.00014182   -0.00042809
     atom   11 type  1   force =    -0.00016912    0.00193782    0.00936648
     atom   12 type  1   force =     0.00070876   -0.00042722    0.00008934
     atom   13 type  1   force =     0.00235927   -0.00092627    0.00937739
     atom   14 type  1   force =    -0.00114144   -0.00051636    0.00913295
     atom   15 type  1   force =     0.00014962    0.00032052    0.00127139
     atom   16 type  1   force =     0.00046842   -0.00012622   -0.00042610
     atom   17 type  1   force =     0.00065795    0.00029672    0.00123833
     atom   18 type  1   force =     0.00021263    0.00040711    0.00169243
     atom   19 type  1   force =     0.00007715    0.00002496    0.00030448
     atom   20 type  1   force =     0.00011254   -0.00003169   -0.00011002
     atom   21 type  1   force =     0.00005040    0.00002038    0.00012880
     atom   22 type  1   force =     0.00000042   -0.00006047    0.00038190
     atom   23 type  1   force =     0.00001403   -0.00024827    0.00003039
     atom   24 type  1   force =     0.00016202   -0.00004799    0.00016814
     atom   25 type  1   force =     0.00002067   -0.00005857    0.00035607
     atom   26 type  1   force =     0.00008832   -0.00006348    0.00050113
     atom   27 type  1   force =     0.00006856   -0.00015941    0.00021161
     atom   28 type  1   force =    -0.00005538   -0.00016621    0.00050062
     atom   29 type  1   force =     0.00004817   -0.00035246    0.00053966
     atom   30 type  1   force =    -0.00012934   -0.00053159    0.00042047
     atom   31 type  1   force =    -0.00046051    0.00002400    0.00019849
     atom   32 type  1   force =    -0.00005100    0.00010512    0.00028015
     atom   33 type  1   force =     0.00017522    0.00006370    0.00033894
     atom   34 type  1   force =    -0.00008243    0.00010031    0.00009171
     atom   35 type  1   force =     0.00003215   -0.00015913    0.00043994
     atom   36 type  1   force =    -0.00002577   -0.00012183    0.00057878
     atom   37 type  2   force =    -0.00122683    0.00123820    0.00023455
     atom   38 type  2   force =    -0.00101306   -0.00137670   -0.00070283
     atom   39 type  2   force =    -0.00038411    0.00207412    0.00019778
     atom   40 type  3   force =    -0.00075031   -0.00038589   -0.00013356
     atom   41 type  3   force =     0.00047726    0.00017325   -0.00008184
     atom   42 type  3   force =    -0.00076151   -0.00069224   -0.00031301
     atom   43 type  3   force =     0.00029561    0.00004645    0.00011018
     atom   44 type  3   force =     0.00037310    0.00069699   -0.00070311

     Total force =     0.004185     Total SCF correction =     0.003015
     SCF correction compared to forces is large: reduce conv_thr to get better values

[...]

     negative rho (up, down):  1.232E-02 0.000E+00

     negative rho (up, down):  1.232E-02 0.000E+00
 BEEFens 2000 ensemble energies
             -0.608246062304065E+02
             -0.361517816262369E+01
             -0.158465422006148E+02
              0.430362234585255E+02
             -0.221646842878617E+02
             -0.205496734411931E+02
             -0.353491904270822E+02
             -0.867034808372032E+02
             -0.465364604996561E+02
             -0.473043191465913E+02
             -0.370156056489258E+02
              0.232150193294356E+01
              0.408065844290053E+01
              0.758125393829351E+01
              0.265911040110231E+01
              0.475945262719789E+02
             -0.208972576928060E+02
             -0.229872699282003E+02
              0.193598932565590E+02
             -0.112614613602489E+03
              0.537549602668274E+02
             -0.290073124234024E+02
             -0.335222771444953E+01
             -0.114212340241706E+02
             -0.879643194576477E+01
             -0.460540092777629E+01
              0.884461604924365E+02
             -0.188179665723836E+02
             -0.899455571645785E+01
             -0.519670848620302E+02
              0.816292624970922E+02
             -0.186817575601052E+02
             -0.375692245934279E+02
              0.249277503207562E+02
             -0.285047120734004E+01
              0.165059480990325E+02
             -0.483550636964696E+01
              0.107839350198249E+02
              0.289725622113806E+02
             -0.103430382687342E+03
              0.559623992734180E+02
              0.142744967500173E+02
             -0.178700021121449E+01
             -0.361825035624438E+02
              0.123486342250658E+02
             -0.147526031159990E+02
              0.399539808714846E+02
              0.365422760411974E+02
             -0.308119580091000E+02
             -0.275676302460781E+02
             -0.329165528486710E+02
             -0.353084853066102E+02
              0.137342373957588E+02
             -0.491779160909500E+02
              0.116069123599361E+02
              0.624461731341717E+02
              0.637279356170057E+02
              0.356535033084425E+02
              0.154180587304317E+02
              0.271537831635160E+02
[...]
             -0.707857508959490E+02
             -0.835245131076590E+00
             -0.248572404619067E+01
             -0.884724967290936E+01
             -0.180908723595019E+01
             -0.654047479183854E+02
             -0.210292128507254E+02
              0.544113857628842E+01
              0.906345024631668E+01
              0.470025240400774E+02
             -0.398733306374097E+02
              0.657743768788281E+02
             -0.425977464983998E+02
              0.211264198781099E+02
              0.351223855382324E+02

 BEEF-vdW xc energy contributions
           1 :   -784.030880742638
           2 :    719.982787990284
           3 :   -609.186032990925
           4 :    478.903251300822
           5 :   -356.746232674001
           6 :    262.548044027835
           7 :   -203.902872769889
           8 :    176.187783656079
           9 :   -166.629894000319
          10 :    160.503004027136
          11 :   -146.932355902494
          12 :    122.127511334067
          13 :   -89.2127537999002
          14 :    55.2898441240500
          15 :   -27.4219550431455
          16 :    9.35924507267453
          17 :  -0.270329195926251
          18 :   -4.28029360678374
          19 :    9.82661319244619
          20 :   -20.2815990240731
          21 :    36.2508822882555
          22 :   -55.0447253300716
          23 :    72.2135453158976
          24 :   -83.7698220587970
          25 :    88.0026943148544
          26 :   -86.0887896879291
          27 :    81.3199298137754
          28 :   -77.4128841053796
          29 :    76.7459150823366
          30 :   -79.3550310565762
          31 :   -86.0802461678364
          32 :   -65.9152897429138

     Writing output data file ./pwscf.save/

     General routines

     Parallel routines

   This run was terminated on:   2:35:10   4Jan2023

   JOB DONE.