     Program PWSCF v.6.7MaX starts on  3Jan2023 at 22:42:43

     Reading input from ch2coh-bi-ensemble.in
Warning: card &CELL ignored
Warning: card / ignored

     Current dimensions of program PWSCF are:
     Max number of different atomic species (ntypx) = 10
     Max number of k-points (npk) =  40000
     Max angular momentum in pseudopotentials (lmaxx) =  3
     file Pt.pbe-n-kjpaw_psl.1.0.0.UPF: wavefunction(s)  6S 5D renormalized
     file C.pbe-n-kjpaw_psl.1.0.0.UPF: wavefunction(s)  2S 2P renormalized
     file O.pbe-nl-kjpaw_psl.1.0.0.UPF: wavefunction(s)  2S 2P renormalized
     file H.pbe-kjpaw_psl.1.0.0.UPF: wavefunction(s)  1S renormalized

     IMPORTANT: XC functional enforced from input :
     Exchange-correlation= BEEF-VDW
                           (   1   4  43  14   2   0   0)
     Any further DFT definition will be discarded
     Please, verify this is what you really want

     Subspace diagonalization in iterative solution of the eigenvalue problem:
     a serial algorithm will be used

     bravais-lattice index     =            0
     lattice parameter (alat)  =      16.0349  a.u.
     unit-cell volume          =   11294.0790 (a.u.)^3
     number of atoms/cell      =           42
     number of atomic types    =            4
     number of electrons       =       377.00
     number of Kohn-Sham states=          227
     kinetic-energy cutoff     =      60.0000  Ry
     charge density cutoff     =     240.0000  Ry
     scf convergence threshold =      1.0E-06
     mixing beta               =       0.7000
     number of iterations used =            8  local-TF  mixing
     Exchange-correlation= BEEF-VDW
                           (   1   4  43  14   2   0   0)

     celldm(1)=  16.034858  celldm(2)=   0.000000  celldm(3)=   0.000000
     celldm(4)=   0.000000  celldm(5)=   0.000000  celldm(6)=   0.000000

     crystal axes: (cart. coord. in units of alat)
               a(1) = (   1.000000   0.000000   0.000000 )
               a(2) = (   0.500000   0.866025   0.000000 )
               a(3) = (   0.000000   0.000000   3.163187 )

     reciprocal axes: (cart. coord. in units 2 pi/alat)
               b(1) = (  1.000000 -0.577350  0.000000 )
               b(2) = (  0.000000  1.154701  0.000000 )
               b(3) = (  0.000000  0.000000  0.316137 )

     PseudoPot. # 1 for Pt read from file:
     /users/bkreitz1/quantum-espresso/potentials/Pt.pbe-n-kjpaw_psl.1.0.0.UPF
     MD5 check sum: 04dc8a03c51ece93fc7b5889c2958091
     Pseudo is Projector augmented-wave + core cor, Zval = 10.0
     Generated using 'atomic' code by A. Dal Corso  v.6.7MaX
     Shape of augmentation charge: PSQ
     Using radial grid of 1277 points,  6 beta functions with:
                l(1) =   0
                l(2) =   0
                l(3) =   1
                l(4) =   1
                l(5) =   2
                l(6) =   2
     Q(r) pseudized with 0 coefficients

     PseudoPot. # 2 for C  read from file:
     /users/bkreitz1/quantum-espresso/potentials/C.pbe-n-kjpaw_psl.1.0.0.UPF
     MD5 check sum: a169b0ebad56f5ec0d79c4633f80bf22
     Pseudo is Projector augmented-wave + core cor, Zval =  4.0
     Generated using 'atomic' code by A. Dal Corso  v.6.7MaX
     Shape of augmentation charge: PSQ
     Using radial grid of 1073 points,  4 beta functions with:
                l(1) =   0
                l(2) =   0
                l(3) =   1
                l(4) =   1
     Q(r) pseudized with 0 coefficients

     PseudoPot. # 3 for O  read from file:
     /users/bkreitz1/quantum-espresso/potentials/O.pbe-nl-kjpaw_psl.1.0.0.UPF
     MD5 check sum: eef08af8b58d9ec80f8fdb78829eb7cf
     Pseudo is Projector augmented-wave + core cor, Zval =  6.0
     Generated using 'atomic' code by A. Dal Corso  v.6.7MaX
     Shape of augmentation charge: PSQ
     Using radial grid of 1095 points,  4 beta functions with:
                l(1) =   0
                l(2) =   0
                l(3) =   1
                l(4) =   1
     Q(r) pseudized with 0 coefficients

     PseudoPot. # 4 for H  read from file:
     /users/bkreitz1/quantum-espresso/potentials/H.pbe-kjpaw_psl.1.0.0.UPF
     MD5 check sum: ae98473e6dc62675f0d0baffdab24f65
     Pseudo is Projector augmented-wave, Zval =  1.0
     Generated using 'atomic' code by A. Dal Corso  v.6.7MaX
     Shape of augmentation charge: PSQ
     Using radial grid of  929 points,  2 beta functions with:
                l(1) =   0
                l(2) =   0
     Q(r) pseudized with 0 coefficients

     atomic species   valence    mass     pseudopotential
        Pt            10.00   195.08400     Pt( 1.00)
        C              4.00    12.01100     C ( 1.00)
        O              6.00    15.99900     O ( 1.00)
        H              1.00     1.00800     H ( 1.00)

     No symmetry found

   Cartesian axes

     site n.     atom                  positions (alat units)
         1           Pt  tau(   1) = (   0.0000000   0.0000000   1.0017346  )
         2           Pt  tau(   2) = (   0.3333333   0.0000000   1.0017346  )
         3           Pt  tau(   3) = (   0.6666667   0.0000000   1.0017346  )
         4           Pt  tau(   4) = (   0.1666667   0.2886751   1.0017346  )
         5           Pt  tau(   5) = (   0.5000000   0.2886751   1.0017346  )
         6           Pt  tau(   6) = (   0.8333333   0.2886751   1.0017346  )
         7           Pt  tau(   7) = (   0.3333333   0.5773503   1.0017346  )
         8           Pt  tau(   8) = (   0.6666667   0.5773503   1.0017346  )
         9           Pt  tau(   9) = (   1.0000000   0.5773503   1.0017346  )
        10           Pt  tau(  10) = (   0.1666667   0.0962250   1.2739001  )
        11           Pt  tau(  11) = (   0.5000000   0.0962250   1.2739001  )
        12           Pt  tau(  12) = (   0.8333333   0.0962250   1.2739001  )
        13           Pt  tau(  13) = (   0.3333333   0.3849002   1.2739001  )
        14           Pt  tau(  14) = (   0.6666667   0.3849002   1.2739001  )
        15           Pt  tau(  15) = (   1.0000000   0.3849002   1.2739001  )
        16           Pt  tau(  16) = (   0.5000000   0.6735753   1.2739001  )
        17           Pt  tau(  17) = (   0.8333333   0.6735753   1.2739001  )
        18           Pt  tau(  18) = (   1.1666667   0.6735753   1.2739001  )
        19           Pt  tau(  19) = (  -0.0005795   0.1924041   1.5421775  )
        20           Pt  tau(  20) = (   0.3326695   0.1937861   1.5395656  )
        21           Pt  tau(  21) = (   0.6651166   0.1923073   1.5418501  )
        22           Pt  tau(  22) = (   0.1638312   0.4832838   1.5480117  )
        23           Pt  tau(  23) = (   0.5014219   0.4835129   1.5480625  )
        24           Pt  tau(  24) = (   0.8326708   0.4817329   1.5454938  )
        25           Pt  tau(  25) = (   0.3323518   0.7698574   1.5435707  )
        26           Pt  tau(  26) = (   0.6655803   0.7681968   1.5456559  )
        27           Pt  tau(  27) = (   0.9991103   0.7673346   1.5471990  )
        28           Pt  tau(  28) = (  -0.0028652   0.0013191   1.8176617  )
        29           Pt  tau(  29) = (   0.3300730   0.0069356   1.8131450  )
        30           Pt  tau(  30) = (   0.6651028   0.0023404   1.8177454  )
        31           Pt  tau(  31) = (   0.1657508   0.2887983   1.8167165  )
        32           Pt  tau(  32) = (   0.4964092   0.2890970   1.8173108  )
        33           Pt  tau(  33) = (   0.8302058   0.2858046   1.8146071  )
        34           Pt  tau(  34) = (   0.3314731   0.5783005   1.8203151  )
        35           Pt  tau(  35) = (   0.6615832   0.5775473   1.8356943  )
        36           Pt  tau(  36) = (   0.9975968   0.5810780   1.8369119  )
        37           C   tau(  37) = (   0.9137621   0.5411606   2.0443994  )
        38           C   tau(  38) = (   0.7465459   0.5788970   2.0685851  )
        39           O   tau(  39) = (   0.9910847   0.4738560   2.1618529  )
        40           H   tau(  40) = (   0.7311011   0.6993411   2.1117885  )
        41           H   tau(  41) = (   0.6862358   0.4940494   2.1442629  )
        42           H   tau(  42) = (   1.0963453   0.4434986   2.1268158  )

     number of k points=    13  Marzari-Vanderbilt smearing, width (Ry)=  0.0200
                       cart. coord. in units 2pi/alat
        k(    1) = (   0.0000000   0.0000000   0.0000000), wk =   0.0800000
        k(    2) = (   0.0000000   0.2309401   0.0000000), wk =   0.1600000
        k(    3) = (   0.0000000   0.4618802   0.0000000), wk =   0.1600000
        k(    4) = (   0.2000000  -0.1154701   0.0000000), wk =   0.1600000
        k(    5) = (   0.2000000   0.1154701   0.0000000), wk =   0.1600000
        k(    6) = (   0.2000000   0.3464102   0.0000000), wk =   0.1600000
        k(    7) = (   0.2000000  -0.5773503   0.0000000), wk =   0.1600000
        k(    8) = (   0.2000000  -0.3464102   0.0000000), wk =   0.1600000
        k(    9) = (   0.4000000  -0.2309401   0.0000000), wk =   0.1600000
        k(   10) = (   0.4000000  -0.0000000   0.0000000), wk =   0.1600000
        k(   11) = (   0.4000000   0.2309401   0.0000000), wk =   0.1600000
        k(   12) = (   0.4000000  -0.6928203   0.0000000), wk =   0.1600000
        k(   13) = (   0.4000000  -0.4618802   0.0000000), wk =   0.1600000

     Check: negative core charge=   -0.000002

     Initial potential from superposition of free atoms

     starting charge  376.99378, renormalised to  377.00000

     negative rho (up, down):  1.163E-02 0.000E+00

     %%%%%%%%%%%%%%%%%%%%%%%%%%%%%%%%%%%%%%%%%%%%%%%%%%%%%%%%%%%%%%%%%%%%%%%%
     %                                                                      %
     % You are using vdW-DF, which was implemented by the Thonhauser group. %
     % Please cite the following two papers that made this development      %
     % possible and the two reviews that describe the various versions:     %
     %                                                                      %
     %   T. Thonhauser et al., PRL 115, 136402 (2015).                      %
     %   T. Thonhauser et al., PRB 76, 125112 (2007).                       %
     %   K. Berland et al., Rep. Prog. Phys. 78, 066501 (2015).             %
     %   D.C. Langreth et al., J. Phys.: Condens. Matter 21, 084203 (2009). %
     %                                                                      %
     %                                                                      %
     % If you are calculating the stress with vdW-DF, please also cite:     %
     %                                                                      %
     %   R. Sabatini et al., J. Phys.: Condens. Matter 24, 424209 (2012).   %
     %                                                                      %
     %%%%%%%%%%%%%%%%%%%%%%%%%%%%%%%%%%%%%%%%%%%%%%%%%%%%%%%%%%%%%%%%%%%%%%%%

     Starting wfcs are  339 randomized atomic wfcs
     Checking if some PAW data can be deallocated...

     Self-consistent Calculation

     iteration #  1     ecut=    60.00 Ry     beta= 0.70
     Davidson diagonalization with overlap
     ethr =  1.00E-02,  avg # of iterations =  2.4

     Threshold (ethr) on eigenvalues was too large:
     Diagonalizing with lowered threshold

     Davidson diagonalization with overlap
     ethr =  7.29E-04,  avg # of iterations =  2.8

[...]

     total energy              =  -27838.04814396 Ry
     estimated scf accuracy    <       2.99712053 Ry

[...]

     iteration #  4     ecut=    60.00 Ry     beta= 0.70
     Davidson diagonalization with overlap
     c_bands:  1 eigenvalues not converged
     c_bands:  2 eigenvalues not converged
     c_bands:  1 eigenvalues not converged
     ethr =  1.08E-04,  avg # of iterations = 11.2

[...]

     iteration #  8     ecut=    60.00 Ry     beta= 0.70
     Davidson diagonalization with overlap
     c_bands:  2 eigenvalues not converged
     ethr =  9.64E-07,  avg # of iterations =  7.1

[...]

     total energy              =  -27838.41732398 Ry
     estimated scf accuracy    <       0.00000358 Ry

     iteration # 20     ecut=    60.00 Ry     beta= 0.70
     Davidson diagonalization with overlap
     ethr =  9.50E-10,  avg # of iterations =  2.0

[...]

     End of self-consistent calculation

          k = 0.0000 0.0000 0.0000 ( 88721 PWs)   bands (ev):

   -21.6117 -12.9173  -9.1976  -7.3616  -6.6308  -5.3800  -5.2825  -5.0924
    -4.3446  -4.2745  -4.2542  -4.2528  -4.2443  -4.2369  -4.2176  -4.1982
    -3.7434  -3.7205  -3.7068  -3.6974  -3.6861  -3.6767  -3.4742  -3.2947
    -3.2701  -3.2441  -3.2357  -3.2307  -3.2125  -3.0836  -3.0518  -3.0266
    -3.0069  -2.9999  -2.9963  -2.8979  -2.8394  -2.8222  -2.8092  -2.7960
    -2.7912  -2.7684  -2.7496  -2.7458  -2.7406  -2.7301  -2.6991  -2.5843
    -2.3649  -2.2022  -2.1712  -2.1613  -2.1464  -2.1322  -2.1170  -2.0985
    -2.0938  -2.0216  -2.0048  -1.9138  -1.9066  -1.8180  -1.5919  -1.4861
    -1.4105  -1.3758  -1.3600  -1.3518  -1.3020  -1.2778  -1.2371  -1.2075
    -1.1854  -1.1670  -1.1583  -1.1545  -1.1514  -1.1426  -1.1112  -1.1039
    -1.0965  -1.0802  -1.0567  -1.0441  -1.0222  -1.0009  -0.9632  -0.9480
    -0.9430  -0.8708  -0.8441  -0.7999  -0.7603  -0.7543  -0.7449  -0.7262
    -0.7128  -0.6985  -0.6942  -0.6911  -0.6224  -0.6152  -0.6077  -0.5595
    -0.5170  -0.5106  -0.5000  -0.4708  -0.4703  -0.4122  -0.3578  -0.3241
    -0.3192  -0.3181  -0.2117  -0.0852   0.0572   0.0843   0.1137   0.1492
     0.1689   0.1830   0.1871   0.2115   0.2166   0.2543   0.2928   0.3212
     0.3411   0.3468   0.4204   0.4351   0.4592   0.4802   0.5136   0.5405
     0.5666   0.6426   0.6662   0.6718   0.6780   0.6964   0.8374   0.8504
     0.9085   0.9147   0.9241   0.9356   0.9748   0.9887   1.1390   1.1611
     1.1647   1.1841   1.2023   1.2311   1.2509   1.2681   1.3329   1.3362
     1.3562   1.3613   1.3621   1.3769   1.3814   1.3924   1.3971   1.4100
     1.4300   1.4545   1.4798   1.4853   1.5053   1.5202   1.5685   1.5781
     1.5912   1.5956   1.6039   1.6205   1.6339   1.6639   1.6735   1.7292
     1.7331   1.7394   1.7587   1.7683   1.7729   1.7834   1.8215   1.8526
     1.8578   1.8868   1.8909   2.0271   2.0501   2.1303   2.1481   2.1703
     2.1844   2.1930   2.1987   2.4055   2.4445   2.9148   2.9670   3.0257
     3.0365   3.0775   3.7517   4.3011   4.4352   5.2507   5.3187   5.3614
     5.3989   5.8826   6.0825   6.4864   6.7845   6.9497   6.9761   6.9880
     7.0033   7.0385   7.0623

[...]

          k = 0.4000-0.4619 0.0000 ( 88608 PWs)   bands (ev):

   -21.6117 -12.9171  -9.1963  -7.3423  -5.6962  -5.6789  -5.2847  -5.1261
    -5.0559  -4.4979  -4.4489  -3.9653  -3.9275  -3.7856  -3.7605  -3.6517
    -3.6439  -3.5793  -3.5440  -3.5199  -3.4585  -3.4184  -3.4022  -3.3824
    -3.3675  -3.3506  -3.3306  -3.2718  -3.2168  -3.1981  -3.1867  -3.1563
    -3.1283  -3.0440  -2.9665  -2.9264  -2.8936  -2.8516  -2.8289  -2.7943
    -2.7801  -2.7429  -2.7078  -2.6754  -2.5820  -2.5321  -2.4032  -2.3715
    -2.3595  -2.2967  -2.2299  -2.2138  -2.1819  -2.0961  -2.0530  -2.0105
    -1.9919  -1.9578  -1.9176  -1.9048  -1.8636  -1.8482  -1.8050  -1.7684
    -1.7544  -1.7359  -1.7242  -1.6982  -1.6567  -1.6466  -1.6135  -1.5393
    -1.4901  -1.4610  -1.4396  -1.3980  -1.3430  -1.3052  -1.2879  -1.2695
    -1.2316  -1.2211  -1.2089  -1.1814  -1.1382  -1.0961  -1.0745  -1.0465
    -1.0132  -0.9646  -0.9364  -0.9081  -0.8874  -0.8797  -0.8336  -0.7739
    -0.7415  -0.6975  -0.6831  -0.6696  -0.6517  -0.6293  -0.6201  -0.5847
    -0.5735  -0.5665  -0.5502  -0.5177  -0.5114  -0.4648  -0.4486  -0.4391
    -0.4197  -0.4138  -0.4055  -0.3783  -0.3502  -0.2717  -0.1945  -0.1040
    -0.0746  -0.0456   0.0007   0.0378   0.0582   0.0713   0.1108   0.1391
     0.1768   0.1888   0.2347   0.2504   0.2698   0.3030   0.3187   0.3945
     0.4310   0.4412   0.4849   0.5623   0.5918   0.6437   0.6746   0.7229
     0.7402   0.7738   0.8023   0.8315   0.8473   0.8758   0.8934   0.9220
     0.9557   0.9856   1.0189   1.0548   1.0737   1.0902   1.1208   1.1413
     1.1972   1.2465   1.2914   1.3704   1.3969   1.4850   1.5323   1.5647
     1.5767   1.6311   1.6783   1.7115   1.7433   1.8213   1.8452   1.8544
     1.8746   1.8984   1.9170   1.9457   1.9679   2.0251   2.0432   2.0607
     2.0817   2.1012   2.1196   2.1233   2.2010   2.2607   2.2965   2.3283
     2.3521   2.3629   2.3912   2.4139   2.5094   2.6051   2.9447   3.0952
     3.4787   3.4983   3.6106   3.7476   3.8100   3.8604   3.9334   4.0741
     4.2628   4.5073   4.5427   4.6479   4.9448   5.0564   5.0962   5.1474
     5.2243   5.3291   5.4094   5.4390   5.6568   5.8608   6.0331   6.2003
     6.3711   6.5854   6.6164

     the Fermi energy is     2.1241 ev

!    total energy              =  -27838.41732347 Ry

     total all-electron energy =  -1326949.557821 Ry
     estimated scf accuracy    <       0.00000089 Ry
     smearing contrib. (-TS)   =       0.00140308 Ry
     internal energy E=F+TS    =  -27838.41872655 Ry

     The total energy is F=E-TS. E is the sum of the following terms:
     one-electron contribution =  -26806.12913472 Ry
     hartree contribution      =   13710.83473684 Ry
     xc contribution           =    -909.58267175 Ry
     ewald contribution        =   11663.67004254 Ry
     one-center paw contrib.   =  -25497.21169945 Ry

     convergence has been achieved in  20 iterations

[...]

     Forces acting on atoms (cartesian axes, Ry/au):

     atom    1 type  1   force =     0.00045021    0.00056563   -0.00375286
     atom    2 type  1   force =     0.00009857    0.00038811   -0.00288097
     atom    3 type  1   force =    -0.00020966    0.00050082   -0.00313781
     atom    4 type  1   force =    -0.00126623   -0.00001600   -0.00646568
     atom    5 type  1   force =     0.00126540    0.00120216   -0.00731372
     atom    6 type  1   force =     0.00033399   -0.00010784   -0.00419676
     atom    7 type  1   force =     0.00026249   -0.00107186   -0.00296395
     atom    8 type  1   force =    -0.00041871   -0.00057708   -0.00397211
     atom    9 type  1   force =     0.00057190   -0.00070581   -0.00387157
     atom   10 type  1   force =    -0.00029388    0.00013082   -0.00117526
     atom   11 type  1   force =     0.00015366    0.00000576   -0.00257121
     atom   12 type  1   force =    -0.00047789   -0.00058431    0.00151129
     atom   13 type  1   force =     0.00008069    0.00131696   -0.00088001
     atom   14 type  1   force =    -0.00394401    0.00086254    0.00379525
     atom   15 type  1   force =     0.00273479    0.00127344    0.00434092
     atom   16 type  1   force =     0.00035873   -0.00191828    0.00990134
     atom   17 type  1   force =     0.00038259    0.00023514    0.01110017
     atom   18 type  1   force =    -0.00156806   -0.00151743    0.01023207
     atom   19 type  1   force =     0.00003134    0.00011604   -0.00016144
     atom   20 type  1   force =     0.00006981   -0.00015278    0.00017151
     atom   21 type  1   force =     0.00008703   -0.00011634    0.00013202
     atom   22 type  1   force =     0.00001740    0.00006363    0.00002179
     atom   23 type  1   force =    -0.00018755    0.00016749    0.00031805
     atom   24 type  1   force =     0.00003675    0.00003974    0.00044274
     atom   25 type  1   force =     0.00021437    0.00000111    0.00019748
     atom   26 type  1   force =     0.00008790    0.00014894    0.00007852
     atom   27 type  1   force =     0.00000071    0.00013214    0.00003346
     atom   28 type  1   force =     0.00009708    0.00028764   -0.00003411
     atom   29 type  1   force =     0.00021651    0.00031059   -0.00017088
     atom   30 type  1   force =    -0.00004309   -0.00027417    0.00028606
     atom   31 type  1   force =     0.00045917   -0.00023690    0.00012761
     atom   32 type  1   force =     0.00025897    0.00037048    0.00003498
     atom   33 type  1   force =     0.00005052    0.00040406   -0.00000624
     atom   34 type  1   force =    -0.00003725   -0.00006720    0.00019435
     atom   35 type  1   force =     0.00025163    0.00008103   -0.00042350
     atom   36 type  1   force =     0.00015325    0.00012145   -0.00035805
     atom   37 type  2   force =     0.00151192   -0.00291874   -0.00094075
     atom   38 type  2   force =    -0.00011319    0.00054399    0.00140413
     atom   39 type  3   force =    -0.00524928    0.00156587    0.00326099
     atom   40 type  4   force =     0.00002358   -0.00036727   -0.00008531
     atom   41 type  4   force =     0.00002354    0.00003845    0.00025889
     atom   42 type  4   force =     0.00352427   -0.00024200   -0.00248138

     Total force =     0.008697     Total SCF correction =     0.001409
     SCF correction compared to forces is large: reduce conv_thr to get better values

[...]

     negative rho (up, down):  1.287E-02 0.000E+00

     negative rho (up, down):  1.287E-02 0.000E+00
 BEEFens 2000 ensemble energies
             -0.608969895144119E+02
             -0.362691290841926E+01
             -0.158919839040635E+02
              0.430904601599382E+02
             -0.221849214076164E+02
             -0.205981015255123E+02
             -0.353738979081919E+02
             -0.868290416950142E+02
             -0.466648371362666E+02
             -0.474199320242296E+02
             -0.370533605158317E+02
              0.228350356402260E+01
              0.409015035460800E+01
              0.762752047523955E+01
              0.267272806404421E+01
              0.476528144902048E+02
             -0.209602377663883E+02
             -0.230919146305091E+02
              0.193667718214775E+02
             -0.112775944371093E+03
              0.538294469913601E+02
             -0.290540270024252E+02
             -0.336160151306168E+01
             -0.114411963011593E+02
             -0.885091306140657E+01
             -0.467210977453993E+01
              0.885867031098814E+02
             -0.187553131665400E+02
             -0.904883031341183E+01
             -0.520341490067952E+02
              0.818239165304669E+02
             -0.187830410489001E+02
             -0.376410247547273E+02
              0.250112826310384E+02
             -0.284800080692207E+01
              0.164829150785246E+02
             -0.485390964651327E+01
              0.108239763505026E+02
              0.289334128359072E+02
             -0.103640556656428E+03
              0.560268885980324E+02
              0.142796356034913E+02
             -0.173025734546155E+01
             -0.362810631808271E+02
              0.123542669162883E+02
             -0.147193229246628E+02
              0.400025586806448E+02
              0.366079760072257E+02
             -0.308953670439624E+02
             -0.276211120630919E+02
             -0.329405005350834E+02
             -0.353329928358613E+02
              0.136797956103661E+02
             -0.492769808988094E+02
              0.116055699154180E+02
              0.625271510718156E+02
              0.637733163770933E+02
              0.356963179020061E+02
              0.154786030665691E+02
              0.271510221400944E+02
[...]
             -0.708644550045246E+02
             -0.902236075571068E+00
             -0.245986371840237E+01
             -0.886047334868931E+01
             -0.178529757790517E+01
             -0.655058725319760E+02
             -0.211298590010773E+02
              0.542599422561444E+01
              0.901887826098022E+01
              0.470456702928422E+02
             -0.399069186544519E+02
              0.659401803605160E+02
             -0.426609298161528E+02
              0.211118872026465E+02
              0.351688927976467E+02

 BEEF-vdW xc energy contributions
           1 :   -785.416381558548
           2 :    721.530505881732
           3 :   -610.898725039273
           4 :    480.608077997058
           5 :   -358.191773888207
           6 :    263.530330757159
           7 :   -204.347383486595
           8 :    176.166061602827
           9 :   -166.313143374287
          10 :    160.081602882764
          11 :   -146.545060209696
          12 :    121.833030699565
          13 :   -88.9999610823086
          14 :    55.1101006048137
          15 :   -27.2301541484136
          16 :    9.14190616740905
          17 :  -4.442124715819773E-002
          18 :   -4.48868078856060
          19 :    10.0004934951079
          20 :   -20.4172928933747
          21 :    36.3506210826247
          22 :   -55.1067476367896
          23 :    72.2263945110739
          24 :   -83.7149115994341
          25 :    87.8675685308048
          26 :   -85.8807501124990
          27 :    81.0642088262687
          28 :   -77.1389563928848
          29 :    76.4760190801943
          30 :   -79.1027990011823
          31 :   -86.1258411711726
          32 :   -66.0016894956185

     Writing output data file ./pwscf.save/

     General routines

     Parallel routines

   This run was terminated on:   2:43:50   4Jan2023

   JOB DONE.