     Program PWSCF v.6.7MaX starts on 20Dec2022 at 15:44:30

     Reading input from ch2ch2-ensemble.in
Warning: card &CELL ignored
Warning: card / ignored

     Current dimensions of program PWSCF are:
     Max number of different atomic species (ntypx) = 10
     Max number of k-points (npk) =  40000
     Max angular momentum in pseudopotentials (lmaxx) =  3
     file Pt.pbe-n-kjpaw_psl.1.0.0.UPF: wavefunction(s)  6S 5D renormalized
     file C.pbe-n-kjpaw_psl.1.0.0.UPF: wavefunction(s)  2S 2P renormalized
     file H.pbe-kjpaw_psl.1.0.0.UPF: wavefunction(s)  1S renormalized

     IMPORTANT: XC functional enforced from input :
     Exchange-correlation= BEEF-VDW
                           (   1   4  43  14   2   0   0)
     Any further DFT definition will be discarded
     Please, verify this is what you really want

     Subspace diagonalization in iterative solution of the eigenvalue problem:
     a serial algorithm will be used

     bravais-lattice index     =            0
     lattice parameter (alat)  =      16.0349  a.u.
     unit-cell volume          =   11158.0003 (a.u.)^3
     number of atoms/cell      =           42
     number of atomic types    =            3
     number of electrons       =       372.00
     number of Kohn-Sham states=          223
     kinetic-energy cutoff     =      60.0000  Ry
     charge density cutoff     =     240.0000  Ry
     scf convergence threshold =      1.0E-06
     mixing beta               =       0.7000
     number of iterations used =            8  local-TF  mixing
     Exchange-correlation= BEEF-VDW
                           (   1   4  43  14   2   0   0)

     celldm(1)=  16.034858  celldm(2)=   0.000000  celldm(3)=   0.000000
     celldm(4)=   0.000000  celldm(5)=   0.000000  celldm(6)=   0.000000

     crystal axes: (cart. coord. in units of alat)
               a(1) = (   1.000000   0.000000   0.000000 )
               a(2) = (   0.500000   0.866025   0.000000 )
               a(3) = (   0.000000   0.000000   3.125075 )

     reciprocal axes: (cart. coord. in units 2 pi/alat)
               b(1) = (  1.000000 -0.577350  0.000000 )
               b(2) = (  0.000000  1.154701  0.000000 )
               b(3) = (  0.000000  0.000000  0.319992 )

     PseudoPot. # 1 for Pt read from file:
     /users/bkreitz1/quantum-espresso/potentials/Pt.pbe-n-kjpaw_psl.1.0.0.UPF
     MD5 check sum: 04dc8a03c51ece93fc7b5889c2958091
     Pseudo is Projector augmented-wave + core cor, Zval = 10.0
     Generated using 'atomic' code by A. Dal Corso  v.6.7MaX
     Shape of augmentation charge: PSQ
     Using radial grid of 1277 points,  6 beta functions with:
                l(1) =   0
                l(2) =   0
                l(3) =   1
                l(4) =   1
                l(5) =   2
                l(6) =   2
     Q(r) pseudized with 0 coefficients

     PseudoPot. # 2 for C  read from file:
     /users/bkreitz1/quantum-espresso/potentials/C.pbe-n-kjpaw_psl.1.0.0.UPF
     MD5 check sum: a169b0ebad56f5ec0d79c4633f80bf22
     Pseudo is Projector augmented-wave + core cor, Zval =  4.0
     Generated using 'atomic' code by A. Dal Corso  v.6.7MaX
     Shape of augmentation charge: PSQ
     Using radial grid of 1073 points,  4 beta functions with:
                l(1) =   0
                l(2) =   0
                l(3) =   1
                l(4) =   1
     Q(r) pseudized with 0 coefficients

     PseudoPot. # 3 for H  read from file:
     /users/bkreitz1/quantum-espresso/potentials/H.pbe-kjpaw_psl.1.0.0.UPF
     MD5 check sum: ae98473e6dc62675f0d0baffdab24f65
     Pseudo is Projector augmented-wave, Zval =  1.0
     Generated using 'atomic' code by A. Dal Corso  v.6.7MaX
     Shape of augmentation charge: PSQ
     Using radial grid of  929 points,  2 beta functions with:
                l(1) =   0
                l(2) =   0
     Q(r) pseudized with 0 coefficients

     atomic species   valence    mass     pseudopotential
        Pt            10.00   195.08400     Pt( 1.00)
        C              4.00    12.01100     C ( 1.00)
        H              1.00     1.00800     H ( 1.00)

     No symmetry found

   Cartesian axes

     site n.     atom                  positions (alat units)
         1           Pt  tau(   1) = (   0.0000000   0.0000000   1.0017346  )
         2           Pt  tau(   2) = (   0.3333333   0.0000000   1.0017346  )
         3           Pt  tau(   3) = (   0.6666667   0.0000000   1.0017346  )
         4           Pt  tau(   4) = (   0.1666667   0.2886751   1.0017346  )
         5           Pt  tau(   5) = (   0.5000000   0.2886751   1.0017346  )
         6           Pt  tau(   6) = (   0.8333333   0.2886751   1.0017346  )
         7           Pt  tau(   7) = (   0.3333333   0.5773503   1.0017346  )
         8           Pt  tau(   8) = (   0.6666667   0.5773503   1.0017346  )
         9           Pt  tau(   9) = (   1.0000000   0.5773503   1.0017346  )
        10           Pt  tau(  10) = (   0.1666667   0.0962250   1.2739001  )
        11           Pt  tau(  11) = (   0.5000000   0.0962250   1.2739001  )
        12           Pt  tau(  12) = (   0.8333333   0.0962250   1.2739001  )
        13           Pt  tau(  13) = (   0.3333333   0.3849002   1.2739001  )
        14           Pt  tau(  14) = (   0.6666667   0.3849002   1.2739001  )
        15           Pt  tau(  15) = (   1.0000000   0.3849002   1.2739001  )
        16           Pt  tau(  16) = (   0.5000000   0.6735753   1.2739001  )
        17           Pt  tau(  17) = (   0.8333333   0.6735753   1.2739001  )
        18           Pt  tau(  18) = (   1.1666667   0.6735753   1.2739001  )
        19           Pt  tau(  19) = (   0.0022145   0.1945398   1.5473295  )
        20           Pt  tau(  20) = (   0.3331968   0.1924577   1.5445798  )
        21           Pt  tau(  21) = (   0.6640827   0.1945444   1.5473812  )
        22           Pt  tau(  22) = (   0.1669758   0.4787279   1.5450065  )
        23           Pt  tau(  23) = (   0.4994278   0.4787260   1.5450582  )
        24           Pt  tau(  24) = (   0.8331851   0.4803280   1.5428559  )
        25           Pt  tau(  25) = (   0.3331840   0.7710745   1.5402517  )
        26           Pt  tau(  26) = (   0.6657242   0.7688987   1.5409512  )
        27           Pt  tau(  27) = (   1.0007057   0.7689276   1.5409448  )
        28           Pt  tau(  28) = (  -0.0004006   0.0006328   1.8155308  )
        29           Pt  tau(  29) = (   0.3330678  -0.0043580   1.8114803  )
        30           Pt  tau(  30) = (   0.6664109   0.0006622   1.8156609  )
        31           Pt  tau(  31) = (   0.1700329   0.2880375   1.8367602  )
        32           Pt  tau(  32) = (   0.4957874   0.2880994   1.8372310  )
        33           Pt  tau(  33) = (   0.8329437   0.2889149   1.8182667  )
        34           Pt  tau(  34) = (   0.3330130   0.5819650   1.8126144  )
        35           Pt  tau(  35) = (   0.6660822   0.5763291   1.8157854  )
        36           Pt  tau(  36) = (   0.9999696   0.5763465   1.8157191  )
        37           C   tau(  37) = (   0.2449542   0.2876633   2.0759899  )
        38           C   tau(  38) = (   0.4200445   0.2882827   2.0759852  )
        39           H   tau(  39) = (   0.1916502   0.1805063   2.1225866  )
        40           H   tau(  40) = (   1.1908225   0.3938115   2.1238108  )
        41           H   tau(  41) = (   0.4738175   0.1816770   2.1234294  )
        42           H   tau(  42) = (   0.4730828   0.3950394   2.1250342  )

     number of k points=    13  Marzari-Vanderbilt smearing, width (Ry)=  0.0200
                       cart. coord. in units 2pi/alat
        k(    1) = (   0.0000000   0.0000000   0.0000000), wk =   0.0800000
        k(    2) = (   0.0000000   0.2309401   0.0000000), wk =   0.1600000
        k(    3) = (   0.0000000   0.4618802   0.0000000), wk =   0.1600000
        k(    4) = (   0.2000000  -0.1154701   0.0000000), wk =   0.1600000
        k(    5) = (   0.2000000   0.1154701   0.0000000), wk =   0.1600000
        k(    6) = (   0.2000000   0.3464102   0.0000000), wk =   0.1600000
        k(    7) = (   0.2000000  -0.5773503   0.0000000), wk =   0.1600000
        k(    8) = (   0.2000000  -0.3464102   0.0000000), wk =   0.1600000
        k(    9) = (   0.4000000  -0.2309401   0.0000000), wk =   0.1600000
        k(   10) = (   0.4000000  -0.0000000   0.0000000), wk =   0.1600000
        k(   11) = (   0.4000000   0.2309401   0.0000000), wk =   0.1600000
        k(   12) = (   0.4000000  -0.6928203   0.0000000), wk =   0.1600000
        k(   13) = (   0.4000000  -0.4618802   0.0000000), wk =   0.1600000

     Check: negative core charge=   -0.000002

     Initial potential from superposition of free atoms

     starting charge  371.99377, renormalised to  372.00000

     negative rho (up, down):  1.115E-02 0.000E+00

     %%%%%%%%%%%%%%%%%%%%%%%%%%%%%%%%%%%%%%%%%%%%%%%%%%%%%%%%%%%%%%%%%%%%%%%%
     %                                                                      %
     % You are using vdW-DF, which was implemented by the Thonhauser group. %
     % Please cite the following two papers that made this development      %
     % possible and the two reviews that describe the various versions:     %
     %                                                                      %
     %   T. Thonhauser et al., PRL 115, 136402 (2015).                      %
     %   T. Thonhauser et al., PRB 76, 125112 (2007).                       %
     %   K. Berland et al., Rep. Prog. Phys. 78, 066501 (2015).             %
     %   D.C. Langreth et al., J. Phys.: Condens. Matter 21, 084203 (2009). %
     %                                                                      %
     %                                                                      %
     % If you are calculating the stress with vdW-DF, please also cite:     %
     %                                                                      %
     %   R. Sabatini et al., J. Phys.: Condens. Matter 24, 424209 (2012).   %
     %                                                                      %
     %%%%%%%%%%%%%%%%%%%%%%%%%%%%%%%%%%%%%%%%%%%%%%%%%%%%%%%%%%%%%%%%%%%%%%%%

     Starting wfcs are  336 randomized atomic wfcs
     Checking if some PAW data can be deallocated...

     Self-consistent Calculation

     iteration #  1     ecut=    60.00 Ry     beta= 0.70
     Davidson diagonalization with overlap
     ethr =  1.00E-02,  avg # of iterations =  2.1

     Threshold (ethr) on eigenvalues was too large:
     Diagonalizing with lowered threshold

     Davidson diagonalization with overlap
     ethr =  7.73E-04,  avg # of iterations =  2.8

[...]

     total energy              =  -27796.90719495 Ry
     estimated scf accuracy    <       3.13514335 Ry

[...]

     iteration #  4     ecut=    60.00 Ry     beta= 0.70
     Davidson diagonalization with overlap
     c_bands:  1 eigenvalues not converged
     ethr =  1.21E-04,  avg # of iterations = 12.8

[...]

     iteration #  9     ecut=    60.00 Ry     beta= 0.70
     Davidson diagonalization with overlap
     c_bands:  1 eigenvalues not converged
     ethr =  8.04E-07,  avg # of iterations =  7.3

[...]

     total energy              =  -27797.18161717 Ry
     estimated scf accuracy    <       0.00000394 Ry

     iteration # 18     ecut=    60.00 Ry     beta= 0.70
     Davidson diagonalization with overlap
     ethr =  1.06E-09,  avg # of iterations =  1.7

[...]

     End of self-consistent calculation

          k = 0.0000 0.0000 0.0000 ( 87759 PWs)   bands (ev):

   -12.2791  -8.2941  -6.7098  -5.4376  -4.8643  -4.4133  -4.3220  -4.3029
    -4.2964  -4.2957  -4.2738  -4.2729  -4.2540  -3.9650  -3.7502  -3.7497
    -3.7327  -3.7299  -3.7233  -3.7048  -3.2915  -3.2771  -3.2737  -3.2717
    -3.2497  -3.2175  -3.0879  -3.0582  -3.0579  -3.0461  -3.0441  -3.0349
    -2.8536  -2.8378  -2.8304  -2.8233  -2.8195  -2.8144  -2.7980  -2.7890
    -2.7742  -2.7733  -2.7715  -2.7562  -2.5158  -2.4484  -2.2109  -2.2072
    -2.1950  -2.1789  -2.1556  -2.1418  -2.1163  -2.0888  -2.0725  -2.0628
    -1.9766  -1.9572  -1.9123  -1.8428  -1.4604  -1.4306  -1.3899  -1.3730
    -1.3663  -1.3518  -1.3109  -1.2201  -1.2181  -1.2094  -1.2050  -1.1912
    -1.1876  -1.1828  -1.1691  -1.1535  -1.1482  -1.1306  -1.1277  -1.1032
    -1.0858  -1.0598  -1.0417  -0.9958  -0.9816  -0.9623  -0.9619  -0.8672
    -0.8234  -0.8018  -0.7985  -0.7771  -0.7594  -0.7397  -0.7222  -0.7146
    -0.6767  -0.6701  -0.6322  -0.6311  -0.5495  -0.5475  -0.5114  -0.5089
    -0.4991  -0.4661  -0.3805  -0.3573  -0.3492  -0.3322  -0.3308  -0.3084
    -0.0077  -0.0027   0.0891   0.1007   0.1170   0.1276   0.1492   0.1577
     0.1668   0.2028   0.2657   0.2806   0.2896   0.3129   0.3190   0.3883
     0.4138   0.4444   0.4577   0.5136   0.5737   0.5775   0.5865   0.6349
     0.6384   0.6401   0.6604   0.7113   0.8486   0.8738   0.8850   0.8969
     0.9001   0.9022   0.9395   0.9505   1.1307   1.1398   1.1408   1.1490
     1.1983   1.2059   1.2844   1.3056   1.3087   1.3209   1.3251   1.3331
     1.3465   1.3546   1.3554   1.3726   1.3789   1.4248   1.4494   1.4519
     1.4727   1.4887   1.5011   1.5083   1.5602   1.5695   1.5704   1.5835
     1.5894   1.5991   1.6073   1.6256   1.6427   1.6926   1.7025   1.7061
     1.7282   1.7327   1.7409   1.7555   1.7961   1.8240   1.8267   1.8537
     1.8542   2.0137   2.0260   2.1131   2.1258   2.1436   2.1629   2.1690
     2.1739   2.4026   2.6894   2.9423   3.0153   3.0422   3.0536   3.0719
     4.3616   4.4391   5.2736   5.3251   5.3565   5.3622   6.0945   6.1284
     6.4773   6.9260   6.9545   6.9585   6.9837   6.9910   7.0077

[...]

          k = 0.4000-0.4619 0.0000 ( 87586 PWs)   bands (ev):

   -12.2786  -8.2960  -5.7478  -5.7360  -5.1378  -4.8697  -4.5464  -4.5018
    -4.0978  -3.9731  -3.9265  -3.8215  -3.7990  -3.6903  -3.6812  -3.5802
    -3.5695  -3.4763  -3.4674  -3.4559  -3.4196  -3.4134  -3.3962  -3.3782
    -3.2856  -3.2514  -3.2505  -3.2107  -3.1938  -3.1296  -3.0461  -2.9911
    -2.9574  -2.8703  -2.8555  -2.8405  -2.8290  -2.8089  -2.7244  -2.7181
    -2.6396  -2.6064  -2.5611  -2.5081  -2.4085  -2.3764  -2.3152  -2.2598
    -2.2243  -2.2152  -2.1807  -2.0841  -2.0382  -2.0175  -2.0049  -1.9762
    -1.9361  -1.9159  -1.8824  -1.8126  -1.7941  -1.7788  -1.7625  -1.7582
    -1.7429  -1.6924  -1.6871  -1.6516  -1.5543  -1.5320  -1.4919  -1.4756
    -1.3953  -1.3806  -1.3397  -1.3149  -1.2763  -1.2623  -1.2336  -1.2038
    -1.1716  -1.1535  -1.1444  -1.1186  -1.0820  -1.0403  -1.0200  -0.9452
    -0.9320  -0.9051  -0.9014  -0.8555  -0.8293  -0.7738  -0.7207  -0.7124
    -0.6958  -0.6736  -0.6576  -0.6396  -0.6155  -0.5998  -0.5906  -0.5693
    -0.5420  -0.5245  -0.5065  -0.4877  -0.4820  -0.4690  -0.4463  -0.4356
    -0.4159  -0.3683  -0.3396  -0.1745  -0.1455  -0.0808  -0.0733  -0.0192
     0.0164   0.0333   0.0729   0.0945   0.1252   0.1294   0.1543   0.1903
     0.2272   0.2623   0.2843   0.3213   0.3451   0.3951   0.4074   0.4397
     0.5453   0.5812   0.6129   0.6607   0.6991   0.7113   0.7364   0.7758
     0.7940   0.8214   0.8348   0.8586   0.8917   0.9116   0.9392   0.9824
     1.0155   1.0437   1.0684   1.0826   1.1103   1.1208   1.1945   1.2342
     1.2806   1.3705   1.3914   1.4801   1.5071   1.5353   1.5604   1.6211
     1.6621   1.6992   1.7170   1.8023   1.8302   1.8352   1.8616   1.8800
     1.8958   1.9207   1.9431   2.0104   2.0291   2.0447   2.0613   2.0773
     2.0954   2.0981   2.1702   2.2571   2.2757   2.3012   2.3195   2.3299
     2.3730   2.3877   2.4999   2.6205   2.9898   3.4116   3.4669   3.4728
     3.7139   3.8235   3.8422   3.8676   4.0253   4.4030   4.4746   4.5226
     4.6675   4.9336   5.0341   5.0740   5.1159   5.1861   5.3121   5.3899
     5.5152   5.6318   5.8789   5.9755   6.1455   6.5123   6.5626

     the Fermi energy is     2.0880 ev

!    total energy              =  -27797.18161672 Ry

     total all-electron energy =  -1326799.475215 Ry
     estimated scf accuracy    <       0.00000071 Ry
     smearing contrib. (-TS)   =       0.00149930 Ry
     internal energy E=F+TS    =  -27797.18311601 Ry

     The total energy is F=E-TS. E is the sum of the following terms:
     one-electron contribution =  -26052.88721241 Ry
     hartree contribution      =   13332.01688279 Ry
     xc contribution           =    -902.66840082 Ry
     ewald contribution        =   11313.41176860 Ry
     one-center paw contrib.   =  -25487.05615416 Ry

     convergence has been achieved in  18 iterations

[...]

     Forces acting on atoms (cartesian axes, Ry/au):

     atom    1 type  1   force =     0.00088743    0.00025719   -0.00596707
     atom    2 type  1   force =     0.00003631    0.00010791   -0.00387079
     atom    3 type  1   force =    -0.00080751    0.00024970   -0.00596622
     atom    4 type  1   force =    -0.00032826   -0.00046814   -0.00365592
     atom    5 type  1   force =     0.00040734   -0.00047255   -0.00365996
     atom    6 type  1   force =     0.00004116   -0.00099675   -0.00259921
     atom    7 type  1   force =     0.00003942    0.00030992   -0.00289667
     atom    8 type  1   force =    -0.00013735    0.00057288   -0.00345185
     atom    9 type  1   force =     0.00021333    0.00056939   -0.00345251
     atom   10 type  1   force =    -0.00317489    0.00096030    0.00322309
     atom   11 type  1   force =     0.00310868    0.00101010    0.00330832
     atom   12 type  1   force =    -0.00005184    0.00123235    0.00079344
     atom   13 type  1   force =    -0.00001237   -0.00059999    0.01013286
     atom   14 type  1   force =    -0.00088761   -0.00196228    0.00895829
     atom   15 type  1   force =     0.00079787   -0.00193725    0.00892355
     atom   16 type  1   force =    -0.00038395    0.00019591   -0.00135562
     atom   17 type  1   force =    -0.00003092   -0.00098036    0.00073551
     atom   18 type  1   force =     0.00031751    0.00021594   -0.00134179
     atom   19 type  1   force =    -0.00002756   -0.00063705   -0.00040967
     atom   20 type  1   force =     0.00005599   -0.00008315    0.00032867
     atom   21 type  1   force =     0.00005282   -0.00063676   -0.00027583
     atom   22 type  1   force =    -0.00027989    0.00052616    0.00008529
     atom   23 type  1   force =     0.00025083    0.00048125    0.00010573
     atom   24 type  1   force =     0.00004867    0.00081338   -0.00059094
     atom   25 type  1   force =     0.00000840   -0.00031995    0.00014544
     atom   26 type  1   force =     0.00020560   -0.00010259    0.00031711
     atom   27 type  1   force =    -0.00020403   -0.00016136    0.00033011
     atom   28 type  1   force =    -0.00008868   -0.00053791    0.00054543
     atom   29 type  1   force =    -0.00001964    0.00042380    0.00013588
     atom   30 type  1   force =     0.00014949   -0.00053223    0.00045376
     atom   31 type  1   force =    -0.00044458   -0.00020849   -0.00009719
     atom   32 type  1   force =     0.00068278    0.00015608   -0.00022930
     atom   33 type  1   force =     0.00003354   -0.00023727   -0.00012127
     atom   34 type  1   force =     0.00004863    0.00011494    0.00012062
     atom   35 type  1   force =     0.00005267    0.00052588    0.00034855
     atom   36 type  1   force =    -0.00006363    0.00055237    0.00036582
     atom   37 type  2   force =    -0.00115702    0.00037602    0.00014568
     atom   38 type  2   force =     0.00219831    0.00414821    0.00473954
     atom   39 type  3   force =     0.00068929    0.00036267   -0.00003705
     atom   40 type  3   force =     0.00050895    0.00013708   -0.00018208
     atom   41 type  3   force =    -0.00066641    0.00031252   -0.00070568
     atom   42 type  3   force =    -0.00206886   -0.00373790   -0.00337610

     Total force =     0.009164     Total SCF correction =     0.001064
     SCF correction compared to forces is large: reduce conv_thr to get better values

[...]

     negative rho (up, down):  1.229E-02 0.000E+00

     negative rho (up, down):  1.229E-02 0.000E+00
 BEEFens 2000 ensemble energies
             -0.604075970170041E+02
             -0.359820632471903E+01
             -0.157736841155105E+02
              0.427471063522992E+02
             -0.220283314748920E+02
             -0.204550080467653E+02
             -0.350280740176945E+02
             -0.860799267827525E+02
             -0.463373557944042E+02
             -0.470839458317369E+02
             -0.367695658436620E+02
              0.225702176552394E+01
              0.405978765316416E+01
              0.763425883976112E+01
              0.263740153506885E+01
              0.472864227123830E+02
             -0.207860598483017E+02
             -0.229550573825923E+02
              0.192099949419603E+02
             -0.111900356651928E+03
              0.533783277209718E+02
             -0.288897601041351E+02
             -0.331552384212763E+01
             -0.113644492458761E+02
             -0.883102994822684E+01
             -0.459647070414624E+01
              0.878908812899440E+02
             -0.186244374723324E+02
             -0.895757144406207E+01
             -0.515990528593043E+02
              0.812267395516244E+02
             -0.186886175040617E+02
             -0.373124519630096E+02
              0.248268282474831E+02
             -0.282926718281419E+01
              0.163021983570785E+02
             -0.485304387089377E+01
              0.107978663121301E+02
              0.287039293193144E+02
             -0.102816124200770E+03
              0.556060777563570E+02
              0.141864426713004E+02
             -0.168096265565157E+01
             -0.360062195026951E+02
              0.122701330574887E+02
             -0.146076892311102E+02
              0.396258659768339E+02
              0.363211634949636E+02
             -0.307095714613503E+02
             -0.273696109098744E+02
             -0.327171016423788E+02
             -0.350615810366475E+02
              0.135711138565981E+02
             -0.488511312344660E+02
              0.114914844817538E+02
              0.620467498109929E+02
              0.632174330677577E+02
              0.354456745358594E+02
              0.153255726837239E+02
              0.269254596286476E+02
[...]
             -0.702897243716392E+02
             -0.894544916483028E+00
             -0.248052914421391E+01
             -0.877651513832632E+01
             -0.182297966517905E+01
             -0.649868302846079E+02
             -0.210020466047856E+02
              0.534918768099207E+01
              0.895156720995413E+01
              0.466661285738541E+02
             -0.395892854320022E+02
              0.654685029638225E+02
             -0.423514901086748E+02
              0.209307147754563E+02
              0.348375859292992E+02

 BEEF-vdW xc energy contributions
           1 :   -779.498613439128
           2 :    716.286320206265
           3 :   -606.739306810235
           4 :    477.633908503070
           5 :   -356.291818459348
           6 :    262.491968399029
           7 :   -203.934448494629
           8 :    176.162530144946
           9 :   -166.543849250030
          10 :    160.420714049143
          11 :   -146.913904686184
          12 :    122.188237122691
          13 :   -89.3251180285062
          14 :    55.4118253989307
          15 :   -27.5246011612054
          16 :    9.43548819484693
          17 :  -0.325337901368925
          18 :   -4.24332752936778
          19 :    9.81084530007934
          20 :   -20.2886137650784
          21 :    36.2716840034799
          22 :   -55.0598177800335
          23 :    72.1994150727514
          24 :   -83.7086156410943
          25 :    87.8938673130705
          26 :   -85.9527875802894
          27 :    81.1869808896012
          28 :   -77.3086012402943
          29 :    76.6837154284405
          30 :   -79.3374912881444
          31 :   -85.4632307129049
          32 :   -65.5388883295566

     Writing output data file ./pwscf.save/

     General routines

     Parallel routines

   This run was terminated on:  19: 4: 0  20Dec2022

   JOB DONE.