     Program PWSCF v.6.7MaX starts on  3Jan2023 at 22:40:13

     Reading input from ch2cch2-bi-ensemble.in
Warning: card &CELL ignored
Warning: card / ignored

     Current dimensions of program PWSCF are:
     Max number of different atomic species (ntypx) = 10
     Max number of k-points (npk) =  40000
     Max angular momentum in pseudopotentials (lmaxx) =  3
     file Pt.pbe-n-kjpaw_psl.1.0.0.UPF: wavefunction(s)  6S 5D renormalized
     file C.pbe-n-kjpaw_psl.1.0.0.UPF: wavefunction(s)  2S 2P renormalized
     file H.pbe-kjpaw_psl.1.0.0.UPF: wavefunction(s)  1S renormalized

     IMPORTANT: XC functional enforced from input :
     Exchange-correlation= BEEF-VDW
                           (   1   4  43  14   2   0   0)
     Any further DFT definition will be discarded
     Please, verify this is what you really want

     Subspace diagonalization in iterative solution of the eigenvalue problem:
     a serial algorithm will be used

     bravais-lattice index     =            0
     lattice parameter (alat)  =      16.0349  a.u.
     unit-cell volume          =   11818.2883 (a.u.)^3
     number of atoms/cell      =           43
     number of atomic types    =            3
     number of electrons       =       376.00
     number of Kohn-Sham states=          226
     kinetic-energy cutoff     =      60.0000  Ry
     charge density cutoff     =     240.0000  Ry
     scf convergence threshold =      1.0E-06
     mixing beta               =       0.7000
     number of iterations used =            8  local-TF  mixing
     Exchange-correlation= BEEF-VDW
                           (   1   4  43  14   2   0   0)

     celldm(1)=  16.034858  celldm(2)=   0.000000  celldm(3)=   0.000000
     celldm(4)=   0.000000  celldm(5)=   0.000000  celldm(6)=   0.000000

     crystal axes: (cart. coord. in units of alat)
               a(1) = (   1.000000   0.000000   0.000000 )
               a(2) = (   0.500000   0.866025   0.000000 )
               a(3) = (   0.000000   0.000000   3.310005 )

     reciprocal axes: (cart. coord. in units 2 pi/alat)
               b(1) = (  1.000000 -0.577350  0.000000 )
               b(2) = (  0.000000  1.154701  0.000000 )
               b(3) = (  0.000000  0.000000  0.302114 )

     PseudoPot. # 1 for Pt read from file:
     /users/bkreitz1/quantum-espresso/potentials/Pt.pbe-n-kjpaw_psl.1.0.0.UPF
     MD5 check sum: 04dc8a03c51ece93fc7b5889c2958091
     Pseudo is Projector augmented-wave + core cor, Zval = 10.0
     Generated using 'atomic' code by A. Dal Corso  v.6.7MaX
     Shape of augmentation charge: PSQ
     Using radial grid of 1277 points,  6 beta functions with:
                l(1) =   0
                l(2) =   0
                l(3) =   1
                l(4) =   1
                l(5) =   2
                l(6) =   2
     Q(r) pseudized with 0 coefficients

     PseudoPot. # 2 for C  read from file:
     /users/bkreitz1/quantum-espresso/potentials/C.pbe-n-kjpaw_psl.1.0.0.UPF
     MD5 check sum: a169b0ebad56f5ec0d79c4633f80bf22
     Pseudo is Projector augmented-wave + core cor, Zval =  4.0
     Generated using 'atomic' code by A. Dal Corso  v.6.7MaX
     Shape of augmentation charge: PSQ
     Using radial grid of 1073 points,  4 beta functions with:
                l(1) =   0
                l(2) =   0
                l(3) =   1
                l(4) =   1
     Q(r) pseudized with 0 coefficients

     PseudoPot. # 3 for H  read from file:
     /users/bkreitz1/quantum-espresso/potentials/H.pbe-kjpaw_psl.1.0.0.UPF
     MD5 check sum: ae98473e6dc62675f0d0baffdab24f65
     Pseudo is Projector augmented-wave, Zval =  1.0
     Generated using 'atomic' code by A. Dal Corso  v.6.7MaX
     Shape of augmentation charge: PSQ
     Using radial grid of  929 points,  2 beta functions with:
                l(1) =   0
                l(2) =   0
     Q(r) pseudized with 0 coefficients

     atomic species   valence    mass     pseudopotential
        Pt            10.00   195.08400     Pt( 1.00)
        C              4.00    12.01100     C ( 1.00)
        H              1.00     1.00800     H ( 1.00)

     No symmetry found

   Cartesian axes

     site n.     atom                  positions (alat units)
         1           Pt  tau(   1) = (   0.0000000   0.0000000   1.0017346  )
         2           Pt  tau(   2) = (   0.3333333   0.0000000   1.0017346  )
         3           Pt  tau(   3) = (   0.6666667   0.0000000   1.0017346  )
         4           Pt  tau(   4) = (   0.1666667   0.2886751   1.0017346  )
         5           Pt  tau(   5) = (   0.5000000   0.2886751   1.0017346  )
         6           Pt  tau(   6) = (   0.8333333   0.2886751   1.0017346  )
         7           Pt  tau(   7) = (   0.3333333   0.5773503   1.0017346  )
         8           Pt  tau(   8) = (   0.6666667   0.5773503   1.0017346  )
         9           Pt  tau(   9) = (   1.0000000   0.5773503   1.0017346  )
        10           Pt  tau(  10) = (   0.1666667   0.0962250   1.2739001  )
        11           Pt  tau(  11) = (   0.5000000   0.0962250   1.2739001  )
        12           Pt  tau(  12) = (   0.8333333   0.0962250   1.2739001  )
        13           Pt  tau(  13) = (   0.3333333   0.3849002   1.2739001  )
        14           Pt  tau(  14) = (   0.6666667   0.3849002   1.2739001  )
        15           Pt  tau(  15) = (   1.0000000   0.3849002   1.2739001  )
        16           Pt  tau(  16) = (   0.5000000   0.6735753   1.2739001  )
        17           Pt  tau(  17) = (   0.8333333   0.6735753   1.2739001  )
        18           Pt  tau(  18) = (   1.1666667   0.6735753   1.2739001  )
        19           Pt  tau(  19) = (   0.0014928   0.1930973   1.5408354  )
        20           Pt  tau(  20) = (   0.3367690   0.1949650   1.5481136  )
        21           Pt  tau(  21) = (   0.6657551   0.1947100   1.5457852  )
        22           Pt  tau(  22) = (   0.1663154   0.4817343   1.5416440  )
        23           Pt  tau(  23) = (   0.5007403   0.4818163   1.5457406  )
        24           Pt  tau(  24) = (   0.8318161   0.4829758   1.5459202  )
        25           Pt  tau(  25) = (   0.3338379   0.7714577   1.5414878  )
        26           Pt  tau(  26) = (   0.6676453   0.7677971   1.5472692  )
        27           Pt  tau(  27) = (   1.0001950   0.7709667   1.5428397  )
        28           Pt  tau(  28) = (   0.0020415   0.0018182   1.8164237  )
        29           Pt  tau(  29) = (   0.3347325   0.0018563   1.8179804  )
        30           Pt  tau(  30) = (   0.6681052   0.0017641   1.8161266  )
        31           Pt  tau(  31) = (   0.1686238   0.2902848   1.8175212  )
        32           Pt  tau(  32) = (   0.5030338   0.2924839   1.8402535  )
        33           Pt  tau(  33) = (   0.8388701   0.2883637   1.8141674  )
        34           Pt  tau(  34) = (   0.3317799   0.5805718   1.8131316  )
        35           Pt  tau(  35) = (   0.6661703   0.5772674   1.8374401  )
        36           Pt  tau(  36) = (   1.0011196   0.5793449   1.8167567  )
        37           C   tau(  37) = (   0.5309716   0.2487694   2.1869258  )
        38           C   tau(  38) = (   0.5573103   0.3479883   2.0676189  )
        39           C   tau(  39) = (   0.6262705   0.5084210   2.0729884  )
        40           H   tau(  40) = (   0.4802003   0.1328694   2.1709388  )
        41           H   tau(  41) = (   0.5598642   0.2841571   2.3068392  )
        42           H   tau(  42) = (   0.7412624   0.5135772   2.1306863  )
        43           H   tau(  43) = (   0.5451935   0.5969903   2.1205511  )

     number of k points=    13  Marzari-Vanderbilt smearing, width (Ry)=  0.0200
                       cart. coord. in units 2pi/alat
        k(    1) = (   0.0000000   0.0000000   0.0000000), wk =   0.0800000
        k(    2) = (   0.0000000   0.2309401   0.0000000), wk =   0.1600000
        k(    3) = (   0.0000000   0.4618802   0.0000000), wk =   0.1600000
        k(    4) = (   0.2000000  -0.1154701   0.0000000), wk =   0.1600000
        k(    5) = (   0.2000000   0.1154701   0.0000000), wk =   0.1600000
        k(    6) = (   0.2000000   0.3464102   0.0000000), wk =   0.1600000
        k(    7) = (   0.2000000  -0.5773503   0.0000000), wk =   0.1600000
        k(    8) = (   0.2000000  -0.3464102   0.0000000), wk =   0.1600000
        k(    9) = (   0.4000000  -0.2309401   0.0000000), wk =   0.1600000
        k(   10) = (   0.4000000  -0.0000000   0.0000000), wk =   0.1600000
        k(   11) = (   0.4000000   0.2309401   0.0000000), wk =   0.1600000
        k(   12) = (   0.4000000  -0.6928203   0.0000000), wk =   0.1600000
        k(   13) = (   0.4000000  -0.4618802   0.0000000), wk =   0.1600000

     Check: negative core charge=   -0.000002

     Initial potential from superposition of free atoms

     starting charge  375.99373, renormalised to  376.00000

     negative rho (up, down):  1.149E-02 0.000E+00

     %%%%%%%%%%%%%%%%%%%%%%%%%%%%%%%%%%%%%%%%%%%%%%%%%%%%%%%%%%%%%%%%%%%%%%%%
     %                                                                      %
     % You are using vdW-DF, which was implemented by the Thonhauser group. %
     % Please cite the following two papers that made this development      %
     % possible and the two reviews that describe the various versions:     %
     %                                                                      %
     %   T. Thonhauser et al., PRL 115, 136402 (2015).                      %
     %   T. Thonhauser et al., PRB 76, 125112 (2007).                       %
     %   K. Berland et al., Rep. Prog. Phys. 78, 066501 (2015).             %
     %   D.C. Langreth et al., J. Phys.: Condens. Matter 21, 084203 (2009). %
     %                                                                      %
     %                                                                      %
     % If you are calculating the stress with vdW-DF, please also cite:     %
     %                                                                      %
     %   R. Sabatini et al., J. Phys.: Condens. Matter 24, 424209 (2012).   %
     %                                                                      %
     %%%%%%%%%%%%%%%%%%%%%%%%%%%%%%%%%%%%%%%%%%%%%%%%%%%%%%%%%%%%%%%%%%%%%%%%

     Starting wfcs are  340 randomized atomic wfcs
     Checking if some PAW data can be deallocated...

     Self-consistent Calculation

     iteration #  1     ecut=    60.00 Ry     beta= 0.70
     Davidson diagonalization with overlap
     ethr =  1.00E-02,  avg # of iterations =  2.0

     Threshold (ethr) on eigenvalues was too large:
     Diagonalizing with lowered threshold

     Davidson diagonalization with overlap
     ethr =  9.58E-04,  avg # of iterations =  2.2

[...]

     total energy              =  -27815.79056225 Ry
     estimated scf accuracy    <       3.84958361 Ry

[...]

     iteration #  4     ecut=    60.00 Ry     beta= 0.70
     Davidson diagonalization with overlap
     c_bands:  1 eigenvalues not converged
     ethr =  1.59E-04,  avg # of iterations = 11.8

[...]

     iteration #  9     ecut=    60.00 Ry     beta= 0.70
     Davidson diagonalization with overlap
     c_bands:  1 eigenvalues not converged
     ethr =  1.81E-06,  avg # of iterations = 12.1

[...]

     total energy              =  -27816.11095220 Ry
     estimated scf accuracy    <       0.00000240 Ry

     iteration # 20     ecut=    60.00 Ry     beta= 0.70
     Davidson diagonalization with overlap
     ethr =  6.39E-10,  avg # of iterations =  3.8

[...]

     End of self-consistent calculation

          k = 0.0000 0.0000 0.0000 ( 92795 PWs)   bands (ev):

   -13.2385 -10.6015  -7.1222  -6.9164  -5.8496  -4.9093  -4.7211  -4.7120
    -4.7029  -4.6955  -4.6954  -4.6689  -4.6599  -4.5837  -4.4876  -4.4031
    -4.1512  -4.1414  -4.1403  -4.1287  -4.1200  -4.0897  -3.6908  -3.6766
    -3.6743  -3.6671  -3.6595  -3.6170  -3.4673  -3.4639  -3.4561  -3.4444
    -3.4400  -3.3865  -3.2521  -3.2461  -3.2349  -3.2343  -3.2240  -3.2100
    -3.2031  -3.1816  -3.1770  -3.1737  -3.1597  -3.1378  -2.6468  -2.6419
    -2.6216  -2.6137  -2.5960  -2.5665  -2.5361  -2.5316  -2.5126  -2.5015
    -2.4091  -2.3834  -2.3439  -2.3287  -2.1139  -1.9171  -1.8415  -1.8253
    -1.7932  -1.7852  -1.7708  -1.7164  -1.6638  -1.6296  -1.6190  -1.6118
    -1.6037  -1.5963  -1.5930  -1.5887  -1.5599  -1.5485  -1.5392  -1.5324
    -1.5216  -1.5019  -1.4886  -1.4572  -1.4052  -1.3985  -1.3790  -1.3714
    -1.2500  -1.2173  -1.2112  -1.1967  -1.1779  -1.1654  -1.1574  -1.1392
    -1.1241  -1.1146  -1.1099  -1.0492  -1.0439  -1.0041  -0.9599  -0.9593
    -0.9504  -0.9193  -0.9165  -0.8773  -0.7884  -0.7597  -0.7481  -0.7427
    -0.7261  -0.5611  -0.4442  -0.3598  -0.3169  -0.3126  -0.2898  -0.2793
    -0.2582  -0.2452  -0.2325  -0.2045  -0.1499  -0.1235  -0.1028  -0.0890
    -0.0570  -0.0245   0.0113   0.0383   0.0510   0.1061   0.1479   0.1600
     0.2193   0.2271   0.2302   0.2444   0.3042   0.3845   0.4321   0.4703
     0.4783   0.4904   0.4934   0.5282   0.5433   0.6777   0.7201   0.7282
     0.7347   0.7472   0.7876   0.7965   0.8753   0.8923   0.8979   0.9146
     0.9165   0.9263   0.9368   0.9423   0.9489   0.9668   0.9741   1.0225
     1.0472   1.0524   1.0664   1.0726   1.0903   1.1213   1.1497   1.1563
     1.1607   1.1731   1.1798   1.1912   1.2159   1.2254   1.2415   1.2820
     1.2923   1.2967   1.3159   1.3192   1.3310   1.3429   1.3872   1.4108
     1.4163   1.4417   1.4448   1.5933   1.6138   1.6961   1.7088   1.7307
     1.7459   1.7527   1.7601   2.0236   2.2175   2.5481   2.6064   2.6303
     2.6477   2.6758   3.8573   4.0733   4.8672   4.9014   4.9211   4.9557
     5.5942   5.7045   5.9273   6.0885   6.4477   6.5268   6.5447   6.5651
     6.5785   6.5972

[...]

          k = 0.4000-0.4619 0.0000 ( 92744 PWs)   bands (ev):

   -13.2382 -10.6018  -6.9333  -6.1607  -6.1209  -5.5294  -5.0516  -4.9419
    -4.6157  -4.5190  -4.5028  -4.3855  -4.2958  -4.2196  -4.1961  -4.0929
    -4.0745  -3.9851  -3.9619  -3.8896  -3.8659  -3.8404  -3.8235  -3.8133
    -3.7793  -3.7420  -3.6838  -3.6458  -3.6315  -3.6079  -3.5990  -3.5241
    -3.4264  -3.3941  -3.3527  -3.2654  -3.2600  -3.2459  -3.2287  -3.2021
    -3.1302  -3.1204  -3.0258  -3.0029  -2.8361  -2.8079  -2.7886  -2.7126
    -2.6774  -2.6437  -2.6137  -2.5307  -2.4952  -2.4492  -2.4329  -2.4119
    -2.3788  -2.3338  -2.3070  -2.2549  -2.2226  -2.2073  -2.1874  -2.1797
    -2.1697  -2.1473  -2.1220  -2.0566  -2.0297  -1.9722  -1.9295  -1.9199
    -1.8605  -1.8327  -1.8070  -1.7607  -1.7450  -1.7078  -1.6794  -1.6710
    -1.6343  -1.5903  -1.5568  -1.5494  -1.5248  -1.4958  -1.4441  -1.4175
    -1.4053  -1.3572  -1.3265  -1.3159  -1.2952  -1.2237  -1.1780  -1.1441
    -1.1395  -1.1227  -1.0932  -1.0761  -1.0626  -1.0413  -1.0108  -1.0038
    -0.9914  -0.9797  -0.9338  -0.9232  -0.9107  -0.8886  -0.8759  -0.8634
    -0.8409  -0.8150  -0.7935  -0.7535  -0.6160  -0.5699  -0.5122  -0.4998
    -0.4809  -0.4359  -0.3955  -0.3583  -0.3348  -0.2945  -0.2809  -0.2614
    -0.2271  -0.2096  -0.1666  -0.1553  -0.1356  -0.0959  -0.0223  -0.0103
     0.0149   0.0722   0.1351   0.1867   0.2258   0.2366   0.2690   0.3045
     0.3333   0.3748   0.4031   0.4172   0.4375   0.4617   0.4877   0.4958
     0.5680   0.5886   0.6275   0.6514   0.6550   0.6777   0.7041   0.7408
     0.8174   0.8321   0.9018   0.9412   0.9990   1.0387   1.1133   1.1344
     1.1878   1.2216   1.2436   1.2539   1.3309   1.3688   1.4118   1.4335
     1.4535   1.4712   1.4850   1.5103   1.5442   1.6095   1.6225   1.6314
     1.6600   1.6721   1.6815   1.6844   1.7593   1.8595   1.8720   1.8805
     1.8925   1.9097   1.9577   1.9787   2.0907   2.1948   2.6342   3.0355
     3.0554   3.1140   3.2160   3.3744   3.4348   3.4610   3.5360   4.0217
     4.0533   4.1782   4.2530   4.4797   4.5420   4.6523   4.6861   4.8422
     4.8786   4.9503   5.0307   5.3842   5.4255   5.4860   5.7964   5.9033
     6.1080   6.1716

     the Fermi energy is     1.6765 ev

!    total energy              =  -27816.11095250 Ry

     total all-electron energy =  -1326876.168647 Ry
     estimated scf accuracy    <       0.00000063 Ry
     smearing contrib. (-TS)   =       0.00254401 Ry
     internal energy E=F+TS    =  -27816.11349651 Ry

     The total energy is F=E-TS. E is the sum of the following terms:
     one-electron contribution =  -29362.95212926 Ry
     hartree contribution      =   14983.03645716 Ry
     xc contribution           =    -907.35982643 Ry
     ewald contribution        =   12964.76359436 Ry
     one-center paw contrib.   =  -25493.60159234 Ry

     convergence has been achieved in  20 iterations

[...]

     Forces acting on atoms (cartesian axes, Ry/au):

     atom    1 type  1   force =    -0.00076535   -0.00071511   -0.00581322
     atom    2 type  1   force =    -0.00090137    0.00017500   -0.00279207
     atom    3 type  1   force =     0.00062449   -0.00026409   -0.00362584
     atom    4 type  1   force =     0.00046415    0.00062268   -0.00590530
     atom    5 type  1   force =    -0.00076022   -0.00025678   -0.00358312
     atom    6 type  1   force =     0.00029881   -0.00033991   -0.00303073
     atom    7 type  1   force =    -0.00015909   -0.00022643   -0.00388800
     atom    8 type  1   force =    -0.00019212    0.00052774   -0.00366538
     atom    9 type  1   force =     0.00023761   -0.00062327   -0.00347877
     atom   10 type  1   force =     0.00106566    0.00031819    0.00056298
     atom   11 type  1   force =    -0.00131319    0.00261596    0.00992768
     atom   12 type  1   force =     0.00042761    0.00069215   -0.00036914
     atom   13 type  1   force =    -0.00004304   -0.00290484    0.00505917
     atom   14 type  1   force =    -0.00028816    0.00064507    0.01197349
     atom   15 type  1   force =     0.00027620   -0.00004932   -0.00022424
     atom   16 type  1   force =     0.00253629    0.00216097    0.00369975
     atom   17 type  1   force =    -0.00199623    0.00040747    0.01003818
     atom   18 type  1   force =    -0.00029351    0.00063333    0.00145866
     atom   19 type  1   force =     0.00034214   -0.00036274    0.00037900
     atom   20 type  1   force =     0.00031287   -0.00038240   -0.00056274
     atom   21 type  1   force =    -0.00001856   -0.00010313   -0.00071861
     atom   22 type  1   force =     0.00003778    0.00015748    0.00017026
     atom   23 type  1   force =    -0.00006565   -0.00031581   -0.00048069
     atom   24 type  1   force =     0.00025205   -0.00031279   -0.00063336
     atom   25 type  1   force =    -0.00015237   -0.00031115    0.00017217
     atom   26 type  1   force =     0.00015234    0.00013999   -0.00030852
     atom   27 type  1   force =     0.00003823   -0.00005019    0.00017927
     atom   28 type  1   force =    -0.00005566   -0.00026370   -0.00015918
     atom   29 type  1   force =     0.00020841   -0.00017166   -0.00004658
     atom   30 type  1   force =    -0.00019397   -0.00036574   -0.00030429
     atom   31 type  1   force =    -0.00010919   -0.00022339   -0.00051542
     atom   32 type  1   force =     0.00063632    0.00023592   -0.00034828
     atom   33 type  1   force =     0.00000860   -0.00039996   -0.00001690
     atom   34 type  1   force =    -0.00020924   -0.00013605   -0.00016420
     atom   35 type  1   force =    -0.00015996   -0.00053930    0.00029312
     atom   36 type  1   force =     0.00016081   -0.00020978   -0.00017540
     atom   37 type  2   force =     0.00025437   -0.00072825    0.00032031
     atom   38 type  2   force =    -0.00211581    0.00128660    0.00060901
     atom   39 type  2   force =    -0.00185965    0.00270087    0.00033573
     atom   40 type  3   force =     0.00036930    0.00080575    0.00036864
     atom   41 type  3   force =    -0.00009396   -0.00030502   -0.00103592
     atom   42 type  3   force =    -0.00021167   -0.00041522   -0.00087730
     atom   43 type  3   force =     0.00325393   -0.00314915   -0.00282423

     Total force =     0.007382     Total SCF correction =     0.000840
     SCF correction compared to forces is large: reduce conv_thr to get better values

[...]

     negative rho (up, down):  1.296E-02 0.000E+00

     negative rho (up, down):  1.296E-02 0.000E+00
 BEEFens 2000 ensemble energies
             -0.607587520066399E+02
             -0.361652510271270E+01
             -0.158427488757510E+02
              0.429934267027268E+02
             -0.221397064524504E+02
             -0.205363575126223E+02
             -0.352912005959352E+02
             -0.866119578691612E+02
             -0.465114034043529E+02
             -0.472783892749401E+02
             -0.369768444837558E+02
              0.229686388280433E+01
              0.408114530019679E+01
              0.759314637976289E+01
              0.266001300822498E+01
              0.475472610589845E+02
             -0.208860042053037E+02
             -0.229962394049153E+02
              0.193427305417362E+02
             -0.112498942728089E+03
              0.536929803273344E+02
             -0.289925506741729E+02
             -0.335261237810848E+01
             -0.114108058128036E+02
             -0.881003636091839E+01
             -0.461736657591482E+01
              0.883610897489001E+02
             -0.187751303284439E+02
             -0.899664353555727E+01
             -0.519113423687025E+02
              0.815823960765504E+02
             -0.186959142901316E+02
             -0.375392973753941E+02
              0.249196271221211E+02
             -0.284714400486462E+01
              0.164711519751701E+02
             -0.483775636452242E+01
              0.107880408135104E+02
              0.289197260769400E+02
             -0.103348195752534E+03
              0.559033505809256E+02
              0.142565377814889E+02
             -0.176082301592334E+01
             -0.361640733592577E+02
              0.123369003662144E+02
             -0.147190668422132E+02
              0.399087482326811E+02
              0.365085765823064E+02
             -0.308017431374791E+02
             -0.275456215973179E+02
             -0.328898240609120E+02
             -0.352643619405260E+02
              0.136942599700192E+02
             -0.491354668726108E+02
              0.115851953521226E+02
              0.623767268355292E+02
              0.636417195862673E+02
              0.356148013629849E+02
              0.154083336686238E+02
              0.271090631808969E+02
[...]
             -0.707077093482600E+02
             -0.858329266997202E+00
             -0.247589101670216E+01
             -0.883801257424022E+01
             -0.180425635914622E+01
             -0.653406003794447E+02
             -0.210394509511962E+02
              0.542168632895059E+01
              0.903372942130693E+01
              0.469490792838219E+02
             -0.398314416825774E+02
              0.657345750388465E+02
             -0.425634272084741E+02
              0.210884518033747E+02
              0.350807229660906E+02

 BEEF-vdW xc energy contributions
           1 :   -783.395647416698
           2 :    719.554581269775
           3 :   -609.033105535523
           4 :    478.945058084832
           5 :   -356.841419718456
           6 :    262.582792009589
           7 :   -203.832779977806
           8 :    176.031168854860
           9 :   -166.431490560157
          10 :    160.299910394448
          11 :   -146.741125193873
          12 :    121.952295058615
          13 :   -89.0620387434867
          14 :    55.1832940945387
          15 :   -27.3801888567208
          16 :    9.38574945305731
          17 :  -0.340464030159978
          18 :   -4.21103430029552
          19 :    9.79814091483433
          20 :   -20.3052093864544
          21 :    36.3005051824198
          22 :   -55.0693017500889
          23 :    72.1651129886109
          24 :   -83.6313732759180
          25 :    87.7993785894464
          26 :   -85.8751219489491
          27 :    81.1511358244347
          28 :   -77.3186592126143
          29 :    76.7174207087393
          30 :   -79.3522957506776
          31 :   -85.9814132380839
          32 :   -65.8737939808318

     Writing output data file ./pwscf.save/

     General routines

     Parallel routines

   This run was terminated on:   2:56:21   4Jan2023

   JOB DONE.