     Program PWSCF v.6.7MaX starts on  3Jan2023 at 22:33:13

     Reading input from ch2ch2ch2-ensemble.in
Warning: card &CELL ignored
Warning: card / ignored

     Current dimensions of program PWSCF are:
     Max number of different atomic species (ntypx) = 10
     Max number of k-points (npk) =  40000
     Max angular momentum in pseudopotentials (lmaxx) =  3
     file Pt.pbe-n-kjpaw_psl.1.0.0.UPF: wavefunction(s)  6S 5D renormalized
     file C.pbe-n-kjpaw_psl.1.0.0.UPF: wavefunction(s)  2S 2P renormalized
     file H.pbe-kjpaw_psl.1.0.0.UPF: wavefunction(s)  1S renormalized

     IMPORTANT: XC functional enforced from input :
     Exchange-correlation= BEEF-VDW
                           (   1   4  43  14   2   0   0)
     Any further DFT definition will be discarded
     Please, verify this is what you really want

     Subspace diagonalization in iterative solution of the eigenvalue problem:
     a serial algorithm will be used

     bravais-lattice index     =            0
     lattice parameter (alat)  =      16.0349  a.u.
     unit-cell volume          =   11722.5321 (a.u.)^3
     number of atoms/cell      =           45
     number of atomic types    =            3
     number of electrons       =       378.00
     number of Kohn-Sham states=          227
     kinetic-energy cutoff     =      60.0000  Ry
     charge density cutoff     =     240.0000  Ry
     scf convergence threshold =      1.0E-06
     mixing beta               =       0.7000
     number of iterations used =            8  local-TF  mixing
     Exchange-correlation= BEEF-VDW
                           (   1   4  43  14   2   0   0)

     celldm(1)=  16.034858  celldm(2)=   0.000000  celldm(3)=   0.000000
     celldm(4)=   0.000000  celldm(5)=   0.000000  celldm(6)=   0.000000

     crystal axes: (cart. coord. in units of alat)
               a(1) = (   1.000000   0.000000   0.000000 )
               a(2) = (   0.500000   0.866025   0.000000 )
               a(3) = (   0.000000   0.000000   3.283186 )

     reciprocal axes: (cart. coord. in units 2 pi/alat)
               b(1) = (  1.000000 -0.577350  0.000000 )
               b(2) = (  0.000000  1.154701  0.000000 )
               b(3) = (  0.000000  0.000000  0.304582 )

     PseudoPot. # 1 for Pt read from file:
     /users/bkreitz1/quantum-espresso/potentials/Pt.pbe-n-kjpaw_psl.1.0.0.UPF
     MD5 check sum: 04dc8a03c51ece93fc7b5889c2958091
     Pseudo is Projector augmented-wave + core cor, Zval = 10.0
     Generated using 'atomic' code by A. Dal Corso  v.6.7MaX
     Shape of augmentation charge: PSQ
     Using radial grid of 1277 points,  6 beta functions with:
                l(1) =   0
                l(2) =   0
                l(3) =   1
                l(4) =   1
                l(5) =   2
                l(6) =   2
     Q(r) pseudized with 0 coefficients

     PseudoPot. # 2 for C  read from file:
     /users/bkreitz1/quantum-espresso/potentials/C.pbe-n-kjpaw_psl.1.0.0.UPF
     MD5 check sum: a169b0ebad56f5ec0d79c4633f80bf22
     Pseudo is Projector augmented-wave + core cor, Zval =  4.0
     Generated using 'atomic' code by A. Dal Corso  v.6.7MaX
     Shape of augmentation charge: PSQ
     Using radial grid of 1073 points,  4 beta functions with:
                l(1) =   0
                l(2) =   0
                l(3) =   1
                l(4) =   1
     Q(r) pseudized with 0 coefficients

     PseudoPot. # 3 for H  read from file:
     /users/bkreitz1/quantum-espresso/potentials/H.pbe-kjpaw_psl.1.0.0.UPF
     MD5 check sum: ae98473e6dc62675f0d0baffdab24f65
     Pseudo is Projector augmented-wave, Zval =  1.0
     Generated using 'atomic' code by A. Dal Corso  v.6.7MaX
     Shape of augmentation charge: PSQ
     Using radial grid of  929 points,  2 beta functions with:
                l(1) =   0
                l(2) =   0
     Q(r) pseudized with 0 coefficients

     atomic species   valence    mass     pseudopotential
        Pt            10.00   195.08400     Pt( 1.00)
        C              4.00    12.01100     C ( 1.00)
        H              1.00     1.00800     H ( 1.00)

     No symmetry found

   Cartesian axes

     site n.     atom                  positions (alat units)
         1           Pt  tau(   1) = (   0.0000000   0.0000000   1.0017346  )
         2           Pt  tau(   2) = (   0.3333333   0.0000000   1.0017346  )
         3           Pt  tau(   3) = (   0.6666667   0.0000000   1.0017346  )
         4           Pt  tau(   4) = (   0.1666667   0.2886751   1.0017346  )
         5           Pt  tau(   5) = (   0.5000000   0.2886751   1.0017346  )
         6           Pt  tau(   6) = (   0.8333333   0.2886751   1.0017346  )
         7           Pt  tau(   7) = (   0.3333333   0.5773503   1.0017346  )
         8           Pt  tau(   8) = (   0.6666667   0.5773503   1.0017346  )
         9           Pt  tau(   9) = (   1.0000000   0.5773503   1.0017346  )
        10           Pt  tau(  10) = (   0.1666667   0.0962250   1.2739001  )
        11           Pt  tau(  11) = (   0.5000000   0.0962250   1.2739001  )
        12           Pt  tau(  12) = (   0.8333333   0.0962250   1.2739001  )
        13           Pt  tau(  13) = (   0.3333333   0.3849002   1.2739001  )
        14           Pt  tau(  14) = (   0.6666667   0.3849002   1.2739001  )
        15           Pt  tau(  15) = (   1.0000000   0.3849002   1.2739001  )
        16           Pt  tau(  16) = (   0.5000000   0.6735753   1.2739001  )
        17           Pt  tau(  17) = (   0.8333333   0.6735753   1.2739001  )
        18           Pt  tau(  18) = (   1.1666667   0.6735753   1.2739001  )
        19           Pt  tau(  19) = (   0.0010171   0.1929478   1.5400844  )
        20           Pt  tau(  20) = (   0.3362229   0.1943537   1.5450081  )
        21           Pt  tau(  21) = (   0.6654987   0.1945092   1.5458964  )
        22           Pt  tau(  22) = (   0.1675599   0.4818197   1.5411380  )
        23           Pt  tau(  23) = (   0.5024838   0.4812140   1.5488442  )
        24           Pt  tau(  24) = (   0.8323020   0.4829918   1.5458982  )
        25           Pt  tau(  25) = (   0.3340756   0.7706414   1.5411659  )
        26           Pt  tau(  26) = (   0.6677204   0.7683157   1.5451829  )
        27           Pt  tau(  27) = (   1.0006747   0.7706708   1.5421601  )
        28           Pt  tau(  28) = (   0.0026283   0.0017153   1.8150286  )
        29           Pt  tau(  29) = (   0.3356092   0.0017757   1.8153114  )
        30           Pt  tau(  30) = (   0.6693992   0.0011066   1.8156122  )
        31           Pt  tau(  31) = (   0.1687204   0.2897852   1.8148294  )
        32           Pt  tau(  32) = (   0.5023209   0.2901699   1.8391055  )
        33           Pt  tau(  33) = (   0.8375241   0.2889507   1.8135522  )
        34           Pt  tau(  34) = (   0.3348841   0.5794967   1.8138568  )
        35           Pt  tau(  35) = (   0.6697427   0.5792414   1.8390418  )
        36           Pt  tau(  36) = (   1.0032280   0.5787751   1.8154357  )
        37           C   tau(  37) = (   0.5056791   0.3079189   2.0857049  )
        38           C   tau(  38) = (   0.6468741   0.4003247   2.1461717  )
        39           C   tau(  39) = (   0.6601143   0.5685440   2.0859144  )
        40           H   tau(  40) = (   0.5050498   0.1867187   2.1288093  )
        41           H   tau(  41) = (   0.3943135   0.3651344   2.1159093  )
        42           H   tau(  42) = (   0.7563083   0.3353704   2.1235054  )
        43           H   tau(  43) = (   0.6358446   0.4064334   2.2760511  )
        44           H   tau(  44) = (   0.7673147   0.6262728   2.1275097  )
        45           H   tau(  45) = (   0.5575013   0.6394153   2.1193386  )

     number of k points=    13  Marzari-Vanderbilt smearing, width (Ry)=  0.0200
                       cart. coord. in units 2pi/alat
        k(    1) = (   0.0000000   0.0000000   0.0000000), wk =   0.0800000
        k(    2) = (   0.0000000   0.2309401   0.0000000), wk =   0.1600000
        k(    3) = (   0.0000000   0.4618802   0.0000000), wk =   0.1600000
        k(    4) = (   0.2000000  -0.1154701   0.0000000), wk =   0.1600000
        k(    5) = (   0.2000000   0.1154701   0.0000000), wk =   0.1600000
        k(    6) = (   0.2000000   0.3464102   0.0000000), wk =   0.1600000
        k(    7) = (   0.2000000  -0.5773503   0.0000000), wk =   0.1600000
        k(    8) = (   0.2000000  -0.3464102   0.0000000), wk =   0.1600000
        k(    9) = (   0.4000000  -0.2309401   0.0000000), wk =   0.1600000
        k(   10) = (   0.4000000  -0.0000000   0.0000000), wk =   0.1600000
        k(   11) = (   0.4000000   0.2309401   0.0000000), wk =   0.1600000
        k(   12) = (   0.4000000  -0.6928203   0.0000000), wk =   0.1600000
        k(   13) = (   0.4000000  -0.4618802   0.0000000), wk =   0.1600000

     Check: negative core charge=   -0.000002

     Initial potential from superposition of free atoms

     starting charge  377.99371, renormalised to  378.00000

     negative rho (up, down):  1.176E-02 0.000E+00

     %%%%%%%%%%%%%%%%%%%%%%%%%%%%%%%%%%%%%%%%%%%%%%%%%%%%%%%%%%%%%%%%%%%%%%%%
     %                                                                      %
     % You are using vdW-DF, which was implemented by the Thonhauser group. %
     % Please cite the following two papers that made this development      %
     % possible and the two reviews that describe the various versions:     %
     %                                                                      %
     %   T. Thonhauser et al., PRL 115, 136402 (2015).                      %
     %   T. Thonhauser et al., PRB 76, 125112 (2007).                       %
     %   K. Berland et al., Rep. Prog. Phys. 78, 066501 (2015).             %
     %   D.C. Langreth et al., J. Phys.: Condens. Matter 21, 084203 (2009). %
     %                                                                      %
     %                                                                      %
     % If you are calculating the stress with vdW-DF, please also cite:     %
     %                                                                      %
     %   R. Sabatini et al., J. Phys.: Condens. Matter 24, 424209 (2012).   %
     %                                                                      %
     %%%%%%%%%%%%%%%%%%%%%%%%%%%%%%%%%%%%%%%%%%%%%%%%%%%%%%%%%%%%%%%%%%%%%%%%

     Starting wfcs are  342 randomized atomic wfcs
     Checking if some PAW data can be deallocated...

     Self-consistent Calculation

     iteration #  1     ecut=    60.00 Ry     beta= 0.70
     Davidson diagonalization with overlap
     ethr =  1.00E-02,  avg # of iterations =  2.5

     Threshold (ethr) on eigenvalues was too large:
     Diagonalizing with lowered threshold

     Davidson diagonalization with overlap
     ethr =  9.02E-04,  avg # of iterations =  2.5

[...]

     total energy              =  -27818.40007550 Ry
     estimated scf accuracy    <       3.67157540 Ry

[...]

     iteration #  6     ecut=    60.00 Ry     beta= 0.70
     Davidson diagonalization with overlap
     c_bands:  1 eigenvalues not converged
     c_bands:  1 eigenvalues not converged
     c_bands:  1 eigenvalues not converged
     c_bands:  3 eigenvalues not converged
     ethr =  1.62E-05,  avg # of iterations = 14.6

[...]

     iteration # 10     ecut=    60.00 Ry     beta= 0.70
     Davidson diagonalization with overlap
     c_bands:  1 eigenvalues not converged
     c_bands:  1 eigenvalues not converged
     ethr =  6.05E-07,  avg # of iterations =  7.5

[...]

     total energy              =  -27818.62746425 Ry
     estimated scf accuracy    <       0.00000202 Ry

     iteration # 20     ecut=    60.00 Ry     beta= 0.70
     Davidson diagonalization with overlap
     ethr =  5.36E-10,  avg # of iterations =  4.1

[...]

     End of self-consistent calculation

          k = 0.0000 0.0000 0.0000 ( 92037 PWs)   bands (ev):

   -13.0926 -10.2926  -7.8649  -6.9420  -5.6812  -4.9028  -4.6873  -4.5660
    -4.5555  -4.5401  -4.5366  -4.5226  -4.5040  -4.4993  -4.4019  -3.9976
    -3.9895  -3.9803  -3.9783  -3.9682  -3.9477  -3.7589  -3.5292  -3.5186
    -3.5180  -3.5050  -3.4984  -3.4813  -3.3185  -3.3025  -3.2939  -3.2894
    -3.2853  -3.2529  -3.0875  -3.0837  -3.0711  -3.0702  -3.0666  -3.0595
    -3.0486  -3.0373  -3.0237  -3.0104  -2.9986  -2.9862  -2.5912  -2.5225
    -2.4795  -2.4517  -2.4468  -2.4356  -2.4140  -2.3935  -2.3607  -2.3473
    -2.2978  -2.2352  -2.2270  -2.1835  -2.1690  -2.0937  -1.7765  -1.7552
    -1.6432  -1.6299  -1.6090  -1.5847  -1.5605  -1.5422  -1.4989  -1.4703
    -1.4494  -1.4480  -1.4457  -1.4288  -1.4247  -1.4122  -1.3977  -1.3824
    -1.3744  -1.3672  -1.3463  -1.3272  -1.3231  -1.2707  -1.2338  -1.2223
    -1.2091  -1.2030  -1.0578  -1.0461  -1.0405  -1.0099  -0.9998  -0.9859
    -0.9757  -0.9690  -0.9269  -0.9228  -0.8769  -0.8739  -0.8338  -0.8012
    -0.7889  -0.7884  -0.7500  -0.7484  -0.7277  -0.6843  -0.6179  -0.5924
    -0.5627  -0.5608  -0.5298  -0.3207  -0.1676  -0.1473  -0.1455  -0.1298
    -0.0981  -0.0938  -0.0898  -0.0582   0.0023   0.0222   0.0275   0.0396
     0.0666   0.0811   0.1033   0.1777   0.1953   0.2496   0.2553   0.2991
     0.3338   0.3556   0.3736   0.3926   0.3967   0.4070   0.4363   0.6132
     0.6241   0.6287   0.6438   0.6607   0.6632   0.6952   0.7123   0.8853
     0.8937   0.9010   0.9173   0.9610   0.9802   1.0476   1.0615   1.0670
     1.0817   1.0937   1.0961   1.0979   1.1133   1.1236   1.1327   1.1553
     1.1781   1.2000   1.2182   1.2277   1.2342   1.2543   1.2573   1.3203
     1.3279   1.3294   1.3384   1.3524   1.3608   1.3869   1.3925   1.4475
     1.4515   1.4593   1.4655   1.4803   1.4856   1.4947   1.5014   1.5638
     1.5802   1.5858   1.6126   1.6148   1.7689   1.7874   1.8671   1.8845
     1.9085   1.9111   1.9255   1.9349   2.2211   2.2665   2.7152   2.7926
     2.7955   2.8059   2.8226   3.8404   4.2686   5.0446   5.0657   5.1068
     5.1157   5.6908   5.7975   6.2920   6.5208   6.6983   6.7082   6.7175
     6.7206   6.7423   6.7483

[...]

          k = 0.4000-0.4619 0.0000 ( 91980 PWs)   bands (ev):

   -13.0923 -10.2938  -7.8595  -6.0026  -5.9605  -5.3773  -4.9802  -4.7806
    -4.7198  -4.5000  -4.2320  -4.1710  -4.0706  -4.0416  -3.9590  -3.9218
    -3.8436  -3.8062  -3.7599  -3.7229  -3.7075  -3.6805  -3.6598  -3.6514
    -3.6344  -3.6106  -3.5303  -3.4894  -3.4838  -3.4478  -3.4385  -3.3761
    -3.2917  -3.2360  -3.1996  -3.1039  -3.0943  -3.0888  -3.0662  -3.0570
    -2.9675  -2.9604  -2.8657  -2.8522  -2.6990  -2.6583  -2.6476  -2.6003
    -2.5496  -2.4824  -2.4622  -2.4271  -2.3454  -2.3226  -2.2890  -2.2508
    -2.2412  -2.2293  -2.1872  -2.1568  -2.1125  -2.0617  -2.0492  -2.0301
    -2.0124  -2.0065  -1.9765  -1.9715  -1.9600  -1.8894  -1.8337  -1.7753
    -1.7640  -1.7445  -1.6611  -1.6483  -1.6266  -1.5837  -1.5722  -1.5289
    -1.5116  -1.4989  -1.4683  -1.3951  -1.3904  -1.3836  -1.3355  -1.3168
    -1.2854  -1.2254  -1.1921  -1.1874  -1.1513  -1.1463  -1.0945  -1.0398
    -0.9904  -0.9775  -0.9463  -0.9339  -0.9003  -0.8921  -0.8799  -0.8479
    -0.8432  -0.8259  -0.7966  -0.7883  -0.7524  -0.7339  -0.7275  -0.7129
    -0.7028  -0.6838  -0.6689  -0.6337  -0.6124  -0.5626  -0.4251  -0.3676
    -0.3317  -0.3080  -0.2618  -0.2176  -0.1830  -0.1662  -0.1291  -0.1113
    -0.1073  -0.0709  -0.0585  -0.0218   0.0098   0.0412   0.0678   0.0793
     0.1475   0.1594   0.1929   0.2733   0.3603   0.3891   0.4026   0.4332
     0.4604   0.4893   0.5342   0.5435   0.5826   0.5940   0.6057   0.6437
     0.6660   0.6930   0.7550   0.7783   0.7987   0.8228   0.8370   0.8556
     0.8751   0.9671   0.9745   1.0061   1.1143   1.1487   1.1914   1.2797
     1.2970   1.3524   1.3773   1.4114   1.4195   1.5001   1.5176   1.5798
     1.6079   1.6326   1.6365   1.6525   1.6809   1.7107   1.7813   1.7938
     1.7984   1.8319   1.8416   1.8476   1.8527   1.9291   2.0273   2.0333
     2.0469   2.0677   2.0814   2.1315   2.1500   2.2576   2.3781   2.9128
     3.0959   3.2227   3.2341   3.3568   3.5430   3.6017   3.6285   3.6937
     4.1684   4.2324   4.3065   4.4321   4.6956   4.7122   4.8228   4.8464
     5.0106   5.0309   5.1223   5.1646   5.5877   5.6436   5.6814   5.8908
     6.2007   6.3010   6.3275

     the Fermi energy is     1.8483 ev

!    total energy              =  -27818.62746444 Ry

     total all-electron energy =  -1326878.685151 Ry
     estimated scf accuracy    <       0.00000060 Ry
     smearing contrib. (-TS)   =       0.00172139 Ry
     internal energy E=F+TS    =  -27818.62918583 Ry

     The total energy is F=E-TS. E is the sum of the following terms:
     one-electron contribution =  -28992.01257290 Ry
     hartree contribution      =   14800.54969263 Ry
     xc contribution           =    -909.04325904 Ry
     ewald contribution        =   12775.47384080 Ry
     one-center paw contrib.   =  -25493.59688732 Ry

     convergence has been achieved in  20 iterations

[...]

     Forces acting on atoms (cartesian axes, Ry/au):

     atom    1 type  1   force =     0.00015347   -0.00017587   -0.00646728
     atom    2 type  1   force =    -0.00091356    0.00030018   -0.00340834
     atom    3 type  1   force =     0.00031221   -0.00004976   -0.00319706
     atom    4 type  1   force =    -0.00002281   -0.00030660   -0.00650242
     atom    5 type  1   force =    -0.00082330   -0.00027492   -0.00358111
     atom    6 type  1   force =     0.00054877   -0.00054635   -0.00333825
     atom    7 type  1   force =     0.00006153   -0.00030175   -0.00338890
     atom    8 type  1   force =    -0.00037304    0.00051632   -0.00358537
     atom    9 type  1   force =     0.00004125   -0.00058317   -0.00319558
     atom   10 type  1   force =     0.00020527    0.00020797   -0.00410787
     atom   11 type  1   force =     0.00033057    0.00195102    0.00800514
     atom   12 type  1   force =     0.00002653    0.00027843   -0.00184387
     atom   13 type  1   force =     0.00159538   -0.00092575    0.00448500
     atom   14 type  1   force =    -0.00078930    0.00102883    0.01411914
     atom   15 type  1   force =     0.00012958    0.00043982   -0.00179309
     atom   16 type  1   force =     0.00203006   -0.00017727    0.00451046
     atom   17 type  1   force =    -0.00118146   -0.00062496    0.00817596
     atom   18 type  1   force =    -0.00017070    0.00046093    0.00074361
     atom   19 type  1   force =    -0.00000654    0.00014054   -0.00008386
     atom   20 type  1   force =     0.00003145   -0.00005351    0.00035801
     atom   21 type  1   force =     0.00023811   -0.00006406    0.00044917
     atom   22 type  1   force =    -0.00010832    0.00003402    0.00012812
     atom   23 type  1   force =    -0.00037868   -0.00000687   -0.00009414
     atom   24 type  1   force =     0.00003635   -0.00011578    0.00020027
     atom   25 type  1   force =     0.00011022    0.00002847    0.00023905
     atom   26 type  1   force =    -0.00011800    0.00002839    0.00025271
     atom   27 type  1   force =     0.00030347   -0.00013971    0.00027277
     atom   28 type  1   force =    -0.00014963    0.00000813   -0.00009801
     atom   29 type  1   force =    -0.00014345   -0.00006750   -0.00023746
     atom   30 type  1   force =    -0.00012272   -0.00007509    0.00010911
     atom   31 type  1   force =     0.00002378   -0.00014209    0.00018340
     atom   32 type  1   force =    -0.00022178   -0.00009576   -0.00003067
     atom   33 type  1   force =    -0.00020582    0.00018968   -0.00014148
     atom   34 type  1   force =     0.00019201   -0.00044938   -0.00033914
     atom   35 type  1   force =    -0.00073312    0.00015783    0.00081614
     atom   36 type  1   force =    -0.00028052   -0.00022453    0.00007084
     atom   37 type  2   force =     0.00012313    0.00070480    0.00072947
     atom   38 type  2   force =    -0.00053464   -0.00141231    0.00191432
     atom   39 type  2   force =    -0.00132153    0.00144361    0.00271371
     atom   40 type  3   force =    -0.00006939    0.00028135   -0.00008376
     atom   41 type  3   force =     0.00053984   -0.00024060    0.00053331
     atom   42 type  3   force =    -0.00089181    0.00060056   -0.00054117
     atom   43 type  3   force =     0.00046403    0.00009310   -0.00027837
     atom   44 type  3   force =    -0.00048503   -0.00005968   -0.00053957
     atom   45 type  3   force =     0.00254816   -0.00178070   -0.00213295

     Total force =     0.006202     Total SCF correction =     0.001707
     SCF correction compared to forces is large: reduce conv_thr to get better values

[...]

     negative rho (up, down):  1.301E-02 0.000E+00

     negative rho (up, down):  1.301E-02 0.000E+00
 BEEFens 2000 ensemble energies
             -0.608932754833984E+02
             -0.361916986873715E+01
             -0.158670805950973E+02
              0.430711288728739E+02
             -0.221772374158762E+02
             -0.205660013045770E+02
             -0.353879253257578E+02
             -0.868032089216811E+02
             -0.465721074554988E+02
             -0.473270167648037E+02
             -0.370441954922588E+02
              0.231630827741700E+01
              0.409756176269386E+01
              0.757423876483034E+01
              0.266697452316618E+01
              0.476381900200205E+02
             -0.209159508355784E+02
             -0.230033983509738E+02
              0.193898376610136E+02
             -0.112714031443745E+03
              0.538005362634489E+02
             -0.290179052582051E+02
             -0.335923557943408E+01
             -0.114206512754413E+02
             -0.879503755234259E+01
             -0.462082024234991E+01
              0.885290798469094E+02
             -0.188257323947031E+02
             -0.901178414635569E+01
             -0.520256278370804E+02
              0.816951536644256E+02
             -0.186940444847219E+02
             -0.376132659840542E+02
              0.249473329747260E+02
             -0.284595404503517E+01
              0.165369990158077E+02
             -0.482710410985158E+01
              0.107759744742178E+02
              0.290100847789899E+02
             -0.103528759754271E+03
              0.560110220964292E+02
              0.142857773950830E+02
             -0.178989343346507E+01
             -0.362202289419780E+02
              0.123597639530975E+02
             -0.147529925995962E+02
              0.400057085249663E+02
              0.365693159164919E+02
             -0.308258594500858E+02
             -0.276066945266213E+02
             -0.329471022441625E+02
             -0.353427637267332E+02
              0.137560728966290E+02
             -0.492342413926962E+02
              0.116190471665450E+02
              0.625033509626433E+02
              0.637943607354267E+02
              0.356715521986688E+02
              0.154392306080705E+02
              0.271849610948498E+02
[...]
             -0.708536483097015E+02
             -0.844695537012058E+00
             -0.247736800891833E+01
             -0.885880567794163E+01
             -0.179796137269756E+01
             -0.654589317075264E+02
             -0.210415780865029E+02
              0.545789282917191E+01
              0.907073961765462E+01
              0.470473356842524E+02
             -0.399153892002309E+02
              0.658239521986044E+02
             -0.426354971784727E+02
              0.211490730583438E+02
              0.351656427217120E+02

 BEEF-vdW xc energy contributions
           1 :   -784.762525845046
           2 :    720.694669789444
           3 :   -609.811933142453
           4 :    479.349668344769
           5 :   -356.945470286201
           6 :    262.497650534259
           7 :   -203.671795225388
           8 :    175.886299629872
           9 :   -166.356812512552
          10 :    160.303416932062
          11 :   -146.790153475625
          12 :    121.993369244787
          13 :   -89.0426078608568
          14 :    55.0698382052942
          15 :   -27.1734393627517
          16 :    9.12176661071635
          17 :  -7.142605454509976E-002
          18 :   -4.44465714644821
          19 :    9.98343258906777
          20 :   -20.4536305807037
          21 :    36.4355218794049
          22 :   -55.2131503445348
          23 :    72.3255897541234
          24 :   -83.7944861788012
          25 :    87.9362840004605
          26 :   -85.9606039713871
          27 :    81.1786872809530
          28 :   -77.3035530243586
          29 :    76.6923619786795
          30 :   -79.3539917490344
          31 :   -86.1927702352472
          32 :   -66.0139396045714

     Writing output data file ./pwscf.save/

     General routines

     Parallel routines

   This run was terminated on:   2:49: 9   4Jan2023

   JOB DONE.