     Program PWSCF v.6.7MaX starts on  3Jan2023 at 22:39:16

     Reading input from ch2cho-mono-ensemble.in
Warning: card &CELL ignored
Warning: card / ignored

     Current dimensions of program PWSCF are:
     Max number of different atomic species (ntypx) = 10
     Max number of k-points (npk) =  40000
     Max angular momentum in pseudopotentials (lmaxx) =  3
     file Pt.pbe-n-kjpaw_psl.1.0.0.UPF: wavefunction(s)  6S 5D renormalized
     file O.pbe-nl-kjpaw_psl.1.0.0.UPF: wavefunction(s)  2S 2P renormalized
     file C.pbe-n-kjpaw_psl.1.0.0.UPF: wavefunction(s)  2S 2P renormalized
     file H.pbe-kjpaw_psl.1.0.0.UPF: wavefunction(s)  1S renormalized

     IMPORTANT: XC functional enforced from input :
     Exchange-correlation= BEEF-VDW
                           (   1   4  43  14   2   0   0)
     Any further DFT definition will be discarded
     Please, verify this is what you really want

     Subspace diagonalization in iterative solution of the eigenvalue problem:
     a serial algorithm will be used

     bravais-lattice index     =            0
     lattice parameter (alat)  =      16.0349  a.u.
     unit-cell volume          =   11548.4365 (a.u.)^3
     number of atoms/cell      =           42
     number of atomic types    =            4
     number of electrons       =       377.00
     number of Kohn-Sham states=          227
     kinetic-energy cutoff     =      60.0000  Ry
     charge density cutoff     =     240.0000  Ry
     scf convergence threshold =      1.0E-06
     mixing beta               =       0.7000
     number of iterations used =            8  local-TF  mixing
     Exchange-correlation= BEEF-VDW
                           (   1   4  43  14   2   0   0)

     celldm(1)=  16.034858  celldm(2)=   0.000000  celldm(3)=   0.000000
     celldm(4)=   0.000000  celldm(5)=   0.000000  celldm(6)=   0.000000

     crystal axes: (cart. coord. in units of alat)
               a(1) = (   1.000000   0.000000   0.000000 )
               a(2) = (   0.500000   0.866025   0.000000 )
               a(3) = (   0.000000   0.000000   3.234426 )

     reciprocal axes: (cart. coord. in units 2 pi/alat)
               b(1) = (  1.000000 -0.577350  0.000000 )
               b(2) = (  0.000000  1.154701  0.000000 )
               b(3) = (  0.000000  0.000000  0.309174 )

     PseudoPot. # 1 for Pt read from file:
     /users/bkreitz1/quantum-espresso/potentials/Pt.pbe-n-kjpaw_psl.1.0.0.UPF
     MD5 check sum: 04dc8a03c51ece93fc7b5889c2958091
     Pseudo is Projector augmented-wave + core cor, Zval = 10.0
     Generated using 'atomic' code by A. Dal Corso  v.6.7MaX
     Shape of augmentation charge: PSQ
     Using radial grid of 1277 points,  6 beta functions with:
                l(1) =   0
                l(2) =   0
                l(3) =   1
                l(4) =   1
                l(5) =   2
                l(6) =   2
     Q(r) pseudized with 0 coefficients

     PseudoPot. # 2 for O  read from file:
     /users/bkreitz1/quantum-espresso/potentials/O.pbe-nl-kjpaw_psl.1.0.0.UPF
     MD5 check sum: eef08af8b58d9ec80f8fdb78829eb7cf
     Pseudo is Projector augmented-wave + core cor, Zval =  6.0
     Generated using 'atomic' code by A. Dal Corso  v.6.7MaX
     Shape of augmentation charge: PSQ
     Using radial grid of 1095 points,  4 beta functions with:
                l(1) =   0
                l(2) =   0
                l(3) =   1
                l(4) =   1
     Q(r) pseudized with 0 coefficients

     PseudoPot. # 3 for C  read from file:
     /users/bkreitz1/quantum-espresso/potentials/C.pbe-n-kjpaw_psl.1.0.0.UPF
     MD5 check sum: a169b0ebad56f5ec0d79c4633f80bf22
     Pseudo is Projector augmented-wave + core cor, Zval =  4.0
     Generated using 'atomic' code by A. Dal Corso  v.6.7MaX
     Shape of augmentation charge: PSQ
     Using radial grid of 1073 points,  4 beta functions with:
                l(1) =   0
                l(2) =   0
                l(3) =   1
                l(4) =   1
     Q(r) pseudized with 0 coefficients

     PseudoPot. # 4 for H  read from file:
     /users/bkreitz1/quantum-espresso/potentials/H.pbe-kjpaw_psl.1.0.0.UPF
     MD5 check sum: ae98473e6dc62675f0d0baffdab24f65
     Pseudo is Projector augmented-wave, Zval =  1.0
     Generated using 'atomic' code by A. Dal Corso  v.6.7MaX
     Shape of augmentation charge: PSQ
     Using radial grid of  929 points,  2 beta functions with:
                l(1) =   0
                l(2) =   0
     Q(r) pseudized with 0 coefficients

     atomic species   valence    mass     pseudopotential
        Pt            10.00   195.08400     Pt( 1.00)
        O              6.00    15.99900     O ( 1.00)
        C              4.00    12.01100     C ( 1.00)
        H              1.00     1.00800     H ( 1.00)

     No symmetry found

   Cartesian axes

     site n.     atom                  positions (alat units)
         1           Pt  tau(   1) = (   0.0000000   0.0000000   1.0017346  )
         2           Pt  tau(   2) = (   0.3333333   0.0000000   1.0017346  )
         3           Pt  tau(   3) = (   0.6666667   0.0000000   1.0017346  )
         4           Pt  tau(   4) = (   0.1666667   0.2886751   1.0017346  )
         5           Pt  tau(   5) = (   0.5000000   0.2886751   1.0017346  )
         6           Pt  tau(   6) = (   0.8333333   0.2886751   1.0017346  )
         7           Pt  tau(   7) = (   0.3333333   0.5773503   1.0017346  )
         8           Pt  tau(   8) = (   0.6666667   0.5773503   1.0017346  )
         9           Pt  tau(   9) = (   1.0000000   0.5773503   1.0017346  )
        10           Pt  tau(  10) = (   0.1666667   0.0962250   1.2739001  )
        11           Pt  tau(  11) = (   0.5000000   0.0962250   1.2739001  )
        12           Pt  tau(  12) = (   0.8333333   0.0962250   1.2739001  )
        13           Pt  tau(  13) = (   0.3333333   0.3849002   1.2739001  )
        14           Pt  tau(  14) = (   0.6666667   0.3849002   1.2739001  )
        15           Pt  tau(  15) = (   1.0000000   0.3849002   1.2739001  )
        16           Pt  tau(  16) = (   0.5000000   0.6735753   1.2739001  )
        17           Pt  tau(  17) = (   0.8333333   0.6735753   1.2739001  )
        18           Pt  tau(  18) = (   1.1666667   0.6735753   1.2739001  )
        19           Pt  tau(  19) = (   0.0021724   0.1907918   1.5414718  )
        20           Pt  tau(  20) = (   0.3354422   0.1909886   1.5423953  )
        21           Pt  tau(  21) = (   0.6683777   0.1880074   1.5467489  )
        22           Pt  tau(  22) = (   0.1685199   0.4799837   1.5415083  )
        23           Pt  tau(  23) = (   0.5016671   0.4789573   1.5414548  )
        24           Pt  tau(  24) = (   0.8347618   0.4798758   1.5406189  )
        25           Pt  tau(  25) = (   0.3327236   0.7696809   1.5473851  )
        26           Pt  tau(  26) = (   0.6684154   0.7683252   1.5410460  )
        27           Pt  tau(  27) = (   1.0037765   0.7694445   1.5470044  )
        28           Pt  tau(  28) = (   0.0052351  -0.0036293   1.8144375  )
        29           Pt  tau(  29) = (   0.3365373  -0.0029404   1.8145135  )
        30           Pt  tau(  30) = (   0.6713066  -0.0041973   1.8425151  )
        31           Pt  tau(  31) = (   0.1705067   0.2850485   1.8146447  )
        32           Pt  tau(  32) = (   0.5037499   0.2853497   1.8174031  )
        33           Pt  tau(  33) = (   0.8376818   0.2869315   1.8130382  )
        34           Pt  tau(  34) = (   0.3381514   0.5726480   1.8142282  )
        35           Pt  tau(  35) = (   0.6702392   0.5737483   1.8138646  )
        36           Pt  tau(  36) = (   1.0036512   0.5726476   1.8139428  )
        37           O   tau(  37) = (   0.7850050   0.2013570   2.2326914  )
        38           C   tau(  38) = (   0.6728091   0.1499507   2.1571264  )
        39           C   tau(  39) = (   0.6632397  -0.0133547   2.0909817  )
        40           H   tau(  40) = (   0.5663676   0.2266433   2.1341616  )
        41           H   tau(  41) = (   0.5483909  -0.0672628   2.1199120  )
        42           H   tau(  42) = (   0.7619856  -0.0870043   2.1315267  )

     number of k points=    13  Marzari-Vanderbilt smearing, width (Ry)=  0.0200
                       cart. coord. in units 2pi/alat
        k(    1) = (   0.0000000   0.0000000   0.0000000), wk =   0.0800000
        k(    2) = (   0.0000000   0.2309401   0.0000000), wk =   0.1600000
        k(    3) = (   0.0000000   0.4618802   0.0000000), wk =   0.1600000
        k(    4) = (   0.2000000  -0.1154701   0.0000000), wk =   0.1600000
        k(    5) = (   0.2000000   0.1154701   0.0000000), wk =   0.1600000
        k(    6) = (   0.2000000   0.3464102   0.0000000), wk =   0.1600000
        k(    7) = (   0.2000000  -0.5773503   0.0000000), wk =   0.1600000
        k(    8) = (   0.2000000  -0.3464102   0.0000000), wk =   0.1600000
        k(    9) = (   0.4000000  -0.2309401   0.0000000), wk =   0.1600000
        k(   10) = (   0.4000000  -0.0000000   0.0000000), wk =   0.1600000
        k(   11) = (   0.4000000   0.2309401   0.0000000), wk =   0.1600000
        k(   12) = (   0.4000000  -0.6928203   0.0000000), wk =   0.1600000
        k(   13) = (   0.4000000  -0.4618802   0.0000000), wk =   0.1600000

     Check: negative core charge=   -0.000002

     Initial potential from superposition of free atoms

     starting charge  376.99378, renormalised to  377.00000

     negative rho (up, down):  1.209E-02 0.000E+00

     %%%%%%%%%%%%%%%%%%%%%%%%%%%%%%%%%%%%%%%%%%%%%%%%%%%%%%%%%%%%%%%%%%%%%%%%
     %                                                                      %
     % You are using vdW-DF, which was implemented by the Thonhauser group. %
     % Please cite the following two papers that made this development      %
     % possible and the two reviews that describe the various versions:     %
     %                                                                      %
     %   T. Thonhauser et al., PRL 115, 136402 (2015).                      %
     %   T. Thonhauser et al., PRB 76, 125112 (2007).                       %
     %   K. Berland et al., Rep. Prog. Phys. 78, 066501 (2015).             %
     %   D.C. Langreth et al., J. Phys.: Condens. Matter 21, 084203 (2009). %
     %                                                                      %
     %                                                                      %
     % If you are calculating the stress with vdW-DF, please also cite:     %
     %                                                                      %
     %   R. Sabatini et al., J. Phys.: Condens. Matter 24, 424209 (2012).   %
     %                                                                      %
     %%%%%%%%%%%%%%%%%%%%%%%%%%%%%%%%%%%%%%%%%%%%%%%%%%%%%%%%%%%%%%%%%%%%%%%%

     Starting wfcs are  339 randomized atomic wfcs
     Checking if some PAW data can be deallocated...

     Self-consistent Calculation

     iteration #  1     ecut=    60.00 Ry     beta= 0.70
     Davidson diagonalization with overlap
     ethr =  1.00E-02,  avg # of iterations =  2.3

[...]

     total energy              =  -27837.67008531 Ry
     estimated scf accuracy    <       3.89201786 Ry

[...]

     iteration #  5     ecut=    60.00 Ry     beta= 0.70
     Davidson diagonalization with overlap
     c_bands:  1 eigenvalues not converged
     ethr =  2.81E-05,  avg # of iterations =  9.0

[...]

     iteration # 10     ecut=    60.00 Ry     beta= 0.70
     Davidson diagonalization with overlap
     c_bands:  1 eigenvalues not converged
     ethr =  1.17E-06,  avg # of iterations =  4.9

[...]

     total energy              =  -27838.39691316 Ry
     estimated scf accuracy    <       0.00000177 Ry

     iteration # 21     ecut=    60.00 Ry     beta= 0.70
     Davidson diagonalization with overlap
     ethr =  4.69E-10,  avg # of iterations =  1.0

[...]

     End of self-consistent calculation

          k = 0.0000 0.0000 0.0000 ( 90643 PWs)   bands (ev):

   -19.3591 -11.7335  -7.4420  -7.2863  -5.9986  -4.9854  -4.8941  -4.8913
    -4.8817  -4.8696  -4.8635  -4.8455  -4.8352  -4.8241  -4.3383  -4.3229
    -4.3191  -4.3160  -4.3018  -4.2984  -3.9180  -3.8950  -3.8559  -3.8527
    -3.8429  -3.8310  -3.8283  -3.7265  -3.6350  -3.6304  -3.6238  -3.6194
    -3.6182  -3.4793  -3.4058  -3.4038  -3.4031  -3.3929  -3.3886  -3.3872
    -3.3810  -3.3684  -3.3538  -3.3433  -3.3268  -3.3140  -2.9626  -2.7800
    -2.7775  -2.7636  -2.7584  -2.7456  -2.6981  -2.6954  -2.6894  -2.6746
    -2.6353  -2.5560  -2.5370  -2.4776  -2.4595  -2.0871  -1.9591  -1.9549
    -1.9468  -1.9255  -1.9115  -1.8968  -1.8264  -1.7936  -1.7863  -1.7814
    -1.7764  -1.7580  -1.7497  -1.7371  -1.7298  -1.7273  -1.7088  -1.7027
    -1.6977  -1.6761  -1.6715  -1.6250  -1.5499  -1.5453  -1.5403  -1.5300
    -1.5268  -1.3954  -1.3905  -1.3734  -1.3462  -1.3337  -1.3300  -1.2891
    -1.2834  -1.2350  -1.2205  -1.1983  -1.1759  -1.1729  -1.1070  -1.1067
    -1.0675  -1.0663  -1.0319  -1.0180  -0.9384  -0.9159  -0.9076  -0.8980
    -0.8863  -0.8741  -0.5311  -0.4770  -0.4706  -0.4403  -0.4281  -0.4246
    -0.4156  -0.4082  -0.3522  -0.3482  -0.3411  -0.2849  -0.2685  -0.2607
    -0.2476  -0.1366  -0.1105  -0.1060  -0.0515  -0.0282  -0.0117   0.0133
     0.0424   0.0505   0.0758   0.0820   0.0944   0.2792   0.3040   0.3113
     0.3159   0.3227   0.3466   0.3795   0.3889   0.5618   0.5748   0.5786
     0.5931   0.5984   0.6450   0.7004   0.7307   0.7342   0.7466   0.7544
     0.7643   0.7854   0.7950   0.7964   0.7990   0.8044   0.8256   0.8911
     0.9042   0.9163   0.9213   0.9278   0.9466   0.9753   0.9972   1.0131
     1.0208   1.0306   1.0399   1.0504   1.0610   1.0701   1.0867   1.1402
     1.1415   1.1589   1.1597   1.1661   1.1716   1.1878   1.2597   1.2635
     1.2655   1.2890   1.2979   1.3088   1.4606   1.4877   1.5660   1.5749
     1.6002   1.6107   1.6111   1.6226   1.8843   2.4632   2.4835   2.4941
     2.5054   2.5229   2.5356   3.6447   4.7493   4.7957   4.8046   4.8323
     4.8607   5.1979   5.8720   6.3547   6.3693   6.3958   6.4141   6.4305
     6.4383   6.5195   6.6087

[...]

          k = 0.4000-0.4619 0.0000 ( 90696 PWs)   bands (ev):

   -19.3591 -11.7333  -7.4427  -6.3286  -6.3106  -5.7142  -5.1134  -5.0823
    -4.8972  -4.5680  -4.5432  -4.4148  -4.3818  -4.2818  -4.2694  -4.1666
    -4.1552  -4.0597  -4.0537  -4.0373  -4.0136  -3.9942  -3.9850  -3.9743
    -3.8869  -3.8693  -3.8314  -3.8302  -3.7954  -3.7727  -3.7013  -3.6428
    -3.5915  -3.5629  -3.4884  -3.4339  -3.4212  -3.4140  -3.3929  -3.3461
    -3.2887  -3.2749  -3.1935  -3.1873  -3.0270  -2.9908  -2.9841  -2.8597
    -2.8424  -2.8268  -2.7771  -2.7699  -2.6598  -2.6268  -2.5885  -2.5802
    -2.5689  -2.5218  -2.5194  -2.4777  -2.3876  -2.3765  -2.3520  -2.3419
    -2.3349  -2.3235  -2.3160  -2.2755  -2.2333  -2.1416  -2.1170  -2.0700
    -2.0592  -1.9787  -1.9470  -1.9049  -1.8939  -1.8723  -1.8557  -1.7977
    -1.7880  -1.7183  -1.7123  -1.7096  -1.6711  -1.6524  -1.6347  -1.5762
    -1.5356  -1.5183  -1.4932  -1.4771  -1.4558  -1.3888  -1.3272  -1.2997
    -1.2795  -1.2716  -1.2618  -1.2268  -1.2141  -1.1744  -1.1677  -1.1511
    -1.1405  -1.1214  -1.1019  -1.0854  -1.0653  -1.0546  -1.0447  -1.0236
    -1.0052  -0.9830  -0.9444  -0.9214  -0.8162  -0.7400  -0.6787  -0.6397
    -0.6350  -0.5416  -0.5303  -0.4907  -0.4767  -0.4392  -0.4310  -0.4198
    -0.3961  -0.3686  -0.3165  -0.2779  -0.2616  -0.2364  -0.2106  -0.1650
    -0.1337  -0.0911  -0.0084   0.0456   0.0921   0.1202   0.1332   0.1556
     0.2217   0.2357   0.2596   0.2747   0.2791   0.3122   0.3377   0.3537
     0.4190   0.4330   0.4765   0.5126   0.5158   0.5278   0.5611   0.5650
     0.6388   0.6982   0.7633   0.8184   0.8465   0.8877   0.9572   0.9701
     1.0184   1.0503   1.1024   1.1148   1.1542   1.2168   1.2574   1.2855
     1.3133   1.3225   1.3349   1.3642   1.3756   1.3999   1.4761   1.4860
     1.4946   1.5288   1.5419   1.5447   1.5627   1.6123   1.7153   1.7270
     1.7508   1.7543   1.7654   1.8233   1.8625   1.9436   2.0728   2.5233
     2.9031   2.9049   3.1149   3.1877   3.2878   3.2997   3.3302   3.5236
     3.9069   3.9132   3.9993   4.3584   4.4026   4.4889   4.5193   4.5350
     4.6671   4.8098   4.9193   5.1212   5.2992   5.3565   5.4055   5.7060
     5.9866   6.0254   6.0727

     the Fermi energy is     1.5280 ev

!    total energy              =  -27838.39691326 Ry

     total all-electron energy =  -1326949.537410 Ry
     estimated scf accuracy    <       0.00000024 Ry
     smearing contrib. (-TS)   =       0.00288416 Ry
     internal energy E=F+TS    =  -27838.39979742 Ry

     The total energy is F=E-TS. E is the sum of the following terms:
     one-electron contribution =  -27880.49186700 Ry
     hartree contribution      =   14241.17265194 Ry
     xc contribution           =    -909.51203599 Ry
     ewald contribution        =   12207.63347273 Ry
     one-center paw contrib.   =  -25497.20201910 Ry

     convergence has been achieved in  21 iterations

[...]

     Forces acting on atoms (cartesian axes, Ry/au):

     atom    1 type  1   force =    -0.00014034   -0.00023676   -0.00374712
     atom    2 type  1   force =    -0.00077447   -0.00055514   -0.00352713
     atom    3 type  1   force =    -0.00019481    0.00020553   -0.00332886
     atom    4 type  1   force =    -0.00019165    0.00020951   -0.00333223
     atom    5 type  1   force =     0.00002402    0.00094560   -0.00336663
     atom    6 type  1   force =    -0.00072085    0.00077221   -0.00343465
     atom    7 type  1   force =     0.00044872    0.00018263   -0.00350739
     atom    8 type  1   force =     0.00005458    0.00040270   -0.00736383
     atom    9 type  1   force =    -0.00106345    0.00027986   -0.00360838
     atom   10 type  1   force =     0.00108174   -0.00109390    0.00137838
     atom   11 type  1   force =     0.00256244   -0.00183314    0.01003747
     atom   12 type  1   force =    -0.00132168   -0.00225809    0.00948888
     atom   13 type  1   force =     0.00113981   -0.00051871    0.00175345
     atom   14 type  1   force =     0.00020868   -0.00093611   -0.00076753
     atom   15 type  1   force =     0.00045487   -0.00043920    0.00073440
     atom   16 type  1   force =    -0.00000933   -0.00079564    0.00033362
     atom   17 type  1   force =     0.00090353    0.00004540   -0.00041230
     atom   18 type  1   force =     0.00096966    0.00230668    0.00974334
     atom   19 type  1   force =    -0.00140146    0.00036494   -0.00071144
     atom   20 type  1   force =     0.00074517    0.00011238   -0.00176989
     atom   21 type  1   force =     0.00012070    0.00147944   -0.00077729
     atom   22 type  1   force =    -0.00042222   -0.00053641   -0.00048248
     atom   23 type  1   force =    -0.00035173   -0.00060599   -0.00070888
     atom   24 type  1   force =     0.00114107   -0.00083252   -0.00100439
     atom   25 type  1   force =     0.00030307   -0.00019283   -0.00136104
     atom   26 type  1   force =    -0.00017739    0.00062749   -0.00110646
     atom   27 type  1   force =    -0.00024977   -0.00038224   -0.00287482
     atom   28 type  1   force =    -0.00122385   -0.00001124    0.00267867
     atom   29 type  1   force =    -0.00043383   -0.00205503    0.00213167
     atom   30 type  1   force =    -0.00180746   -0.00008909   -0.00023987
     atom   31 type  1   force =     0.00023618    0.00066943    0.00238082
     atom   32 type  1   force =    -0.00088038    0.00152251   -0.00061011
     atom   33 type  1   force =    -0.00033020   -0.00228211    0.00320222
     atom   34 type  1   force =    -0.00039816    0.00075000    0.00249413
     atom   35 type  1   force =     0.00067428    0.00111238    0.00320187
     atom   36 type  1   force =    -0.00098363    0.00168812    0.00237505
     atom   37 type  2   force =    -0.01833797   -0.00978320   -0.01481353
     atom   38 type  3   force =     0.00753074    0.01434950    0.00582340
     atom   39 type  3   force =     0.00111468   -0.00603748    0.00983426
     atom   40 type  4   force =     0.01069786   -0.00890968    0.00350417
     atom   41 type  4   force =     0.01112053    0.00473906   -0.00437373
     atom   42 type  4   force =    -0.01011774    0.00761915   -0.00386580

     Total force =     0.041588     Total SCF correction =     0.000700

[...]

     negative rho (up, down):  1.313E-02 0.000E+00

     negative rho (up, down):  1.313E-02 0.000E+00
 BEEFens 2000 ensemble energies
             -0.608937526650855E+02
             -0.362115714556168E+01
             -0.158775717244264E+02
              0.430956707332443E+02
             -0.221953345440630E+02
             -0.205930251332443E+02
             -0.353936226267734E+02
             -0.868274663099047E+02
             -0.466565305035410E+02
             -0.474203735234122E+02
             -0.370542667493725E+02
              0.230456888051585E+01
              0.407556804972847E+01
              0.761792696398365E+01
              0.266727599814982E+01
              0.476582940331759E+02
             -0.209550945160487E+02
             -0.230692109449229E+02
              0.193525106087983E+02
             -0.112788952168342E+03
              0.538374300962168E+02
             -0.290542432016795E+02
             -0.335937455101908E+01
             -0.114513332641752E+02
             -0.883490948231781E+01
             -0.465771025080750E+01
              0.885911460357733E+02
             -0.187831043800780E+02
             -0.903635196177754E+01
             -0.520287012586095E+02
              0.818045597914813E+02
             -0.187594140756369E+02
             -0.376297839541636E+02
              0.250017955216205E+02
             -0.285465254356723E+01
              0.164840102217612E+02
             -0.485980498580756E+01
              0.108255457611946E+02
              0.289402890567782E+02
             -0.103629617158069E+03
              0.560388111214165E+02
              0.142854441851638E+02
             -0.175316416237825E+01
             -0.362644060914993E+02
              0.123569739980303E+02
             -0.147457587369589E+02
              0.399993530151442E+02
              0.366124297930544E+02
             -0.308909976306064E+02
             -0.276077886872221E+02
             -0.329303284909015E+02
             -0.353440419688489E+02
              0.136938388410426E+02
             -0.492670606911977E+02
              0.116149958327528E+02
              0.625337306136626E+02
              0.637875509042826E+02
              0.357115291240227E+02
              0.154754529336579E+02
              0.271648214072991E+02
[...]
             -0.708705632389516E+02
             -0.874629583490105E+00
             -0.246969502085567E+01
             -0.885917191380940E+01
             -0.179868642791160E+01
             -0.655139982302325E+02
             -0.211117702471481E+02
              0.543107394091656E+01
              0.903503217686605E+01
              0.470518064355262E+02
             -0.399054820353826E+02
              0.659319139112907E+02
             -0.426598514656480E+02
              0.211262173118512E+02
              0.351697800373195E+02

 BEEF-vdW xc energy contributions
           1 :   -785.298760532793
           2 :    721.231035904087
           3 :   -610.427151363395
           4 :    480.139239922795
           5 :   -357.911174749080
           6 :    263.516452363823
           7 :   -204.554904184495
           8 :    176.480918994024
           9 :   -166.624949161183
          10 :    160.334257641903
          11 :   -146.744986660192
          12 :    122.019654183215
          13 :   -89.2039316447970
          14 :    55.3241683072977
          15 :   -27.4103147826082
          16 :    9.23810309766463
          17 :  -3.719071560476550E-002
          18 :   -4.57151260655428
          19 :    10.0999649382172
          20 :   -20.4788988819681
          21 :    36.3555260786518
          22 :   -55.0816916476766
          23 :    72.2270656297818
          24 :   -83.7951897807387
          25 :    88.0490772752321
          26 :   -86.1403067065627
          27 :    81.3515317521075
          28 :   -77.4085164863158
          29 :    76.7079030117281
          30 :   -79.3041417984767
          31 :   -86.1162204087832
          32 :   -65.9512081841709

     Writing output data file ./pwscf.save/

     General routines

     Parallel routines

   This run was terminated on:   2:45:40   4Jan2023

   JOB DONE.