     Program PWSCF v.6.7MaX starts on 26Sep2022 at 21: 7:17

     Reading input from ch3-ensemble.in
Warning: card &CELL ignored
Warning: card / ignored

     Current dimensions of program PWSCF are:
     Max number of different atomic species (ntypx) = 10
     Max number of k-points (npk) =  40000
     Max angular momentum in pseudopotentials (lmaxx) =  3
     file Pt.pbe-n-kjpaw_psl.1.0.0.UPF: wavefunction(s)  6S 5D renormalized
     file C.pbe-n-kjpaw_psl.1.0.0.UPF: wavefunction(s)  2S 2P renormalized
     file H.pbe-kjpaw_psl.1.0.0.UPF: wavefunction(s)  1S renormalized

     IMPORTANT: XC functional enforced from input :
     Exchange-correlation= BEEF-VDW
                           (   1   4  43  14   2   0   0)
     Any further DFT definition will be discarded
     Please, verify this is what you really want

     Subspace diagonalization in iterative solution of the eigenvalue problem:
     a serial algorithm will be used

     bravais-lattice index     =            0
     lattice parameter (alat)  =      16.0349  a.u.
     unit-cell volume          =   11173.4907 (a.u.)^3
     number of atoms/cell      =           40
     number of atomic types    =            3
     number of electrons       =       367.00
     number of Kohn-Sham states=          221
     kinetic-energy cutoff     =      60.0000  Ry
     charge density cutoff     =     240.0000  Ry
     scf convergence threshold =      1.0E-06
     mixing beta               =       0.7000
     number of iterations used =            8  local-TF  mixing
     Exchange-correlation= BEEF-VDW
                           (   1   4  43  14   2   0   0)

     celldm(1)=  16.034858  celldm(2)=   0.000000  celldm(3)=   0.000000
     celldm(4)=   0.000000  celldm(5)=   0.000000  celldm(6)=   0.000000

     crystal axes: (cart. coord. in units of alat)
               a(1) = (   1.000000   0.000000   0.000000 )
               a(2) = (   0.500000   0.866025   0.000000 )
               a(3) = (   0.000000   0.000000   3.129413 )

     reciprocal axes: (cart. coord. in units 2 pi/alat)
               b(1) = (  1.000000 -0.577350  0.000000 )
               b(2) = (  0.000000  1.154701  0.000000 )
               b(3) = (  0.000000  0.000000  0.319549 )

     PseudoPot. # 1 for Pt read from file:
     /users/bkreitz1/quantum-espresso/potentials/Pt.pbe-n-kjpaw_psl.1.0.0.UPF
     MD5 check sum: 04dc8a03c51ece93fc7b5889c2958091
     Pseudo is Projector augmented-wave + core cor, Zval = 10.0
     Generated using 'atomic' code by A. Dal Corso  v.6.7MaX
     Shape of augmentation charge: PSQ
     Using radial grid of 1277 points,  6 beta functions with:
                l(1) =   0
                l(2) =   0
                l(3) =   1
                l(4) =   1
                l(5) =   2
                l(6) =   2
     Q(r) pseudized with 0 coefficients

     PseudoPot. # 2 for C  read from file:
     /users/bkreitz1/quantum-espresso/potentials/C.pbe-n-kjpaw_psl.1.0.0.UPF
     MD5 check sum: a169b0ebad56f5ec0d79c4633f80bf22
     Pseudo is Projector augmented-wave + core cor, Zval =  4.0
     Generated using 'atomic' code by A. Dal Corso  v.6.7MaX
     Shape of augmentation charge: PSQ
     Using radial grid of 1073 points,  4 beta functions with:
                l(1) =   0
                l(2) =   0
                l(3) =   1
                l(4) =   1
     Q(r) pseudized with 0 coefficients

     PseudoPot. # 3 for H  read from file:
     /users/bkreitz1/quantum-espresso/potentials/H.pbe-kjpaw_psl.1.0.0.UPF
     MD5 check sum: ae98473e6dc62675f0d0baffdab24f65
     Pseudo is Projector augmented-wave, Zval =  1.0
     Generated using 'atomic' code by A. Dal Corso  v.6.7MaX
     Shape of augmentation charge: PSQ
     Using radial grid of  929 points,  2 beta functions with:
                l(1) =   0
                l(2) =   0
     Q(r) pseudized with 0 coefficients

     atomic species   valence    mass     pseudopotential
        Pt            10.00   195.08400     Pt( 1.00)
        C              4.00    12.01100     C ( 1.00)
        H              1.00     1.00800     H ( 1.00)

     No symmetry found

   Cartesian axes

     site n.     atom                  positions (alat units)
         1           Pt  tau(   1) = (   0.0000000   0.0000000   1.0017346  )
         2           Pt  tau(   2) = (   0.3333333   0.0000000   1.0017346  )
         3           Pt  tau(   3) = (   0.6666667   0.0000000   1.0017346  )
         4           Pt  tau(   4) = (   0.1666667   0.2886751   1.0017346  )
         5           Pt  tau(   5) = (   0.5000000   0.2886751   1.0017346  )
         6           Pt  tau(   6) = (   0.8333333   0.2886751   1.0017346  )
         7           Pt  tau(   7) = (   0.3333333   0.5773503   1.0017346  )
         8           Pt  tau(   8) = (   0.6666667   0.5773503   1.0017346  )
         9           Pt  tau(   9) = (   1.0000000   0.5773503   1.0017346  )
        10           Pt  tau(  10) = (   0.1666667   0.0962250   1.2739001  )
        11           Pt  tau(  11) = (   0.5000000   0.0962250   1.2739001  )
        12           Pt  tau(  12) = (   0.8333333   0.0962250   1.2739001  )
        13           Pt  tau(  13) = (   0.3333333   0.3849002   1.2739001  )
        14           Pt  tau(  14) = (   0.6666667   0.3849002   1.2739001  )
        15           Pt  tau(  15) = (   1.0000000   0.3849002   1.2739001  )
        16           Pt  tau(  16) = (   0.5000000   0.6735753   1.2739001  )
        17           Pt  tau(  17) = (   0.8333333   0.6735753   1.2739001  )
        18           Pt  tau(  18) = (   1.1666667   0.6735753   1.2739001  )
        19           Pt  tau(  19) = (  -0.0000203   0.1926570   1.5415176  )
        20           Pt  tau(  20) = (   0.3353125   0.1935970   1.5464858  )
        21           Pt  tau(  21) = (   0.6645386   0.1935883   1.5464609  )
        22           Pt  tau(  22) = (   0.1668834   0.4808522   1.5422204  )
        23           Pt  tau(  23) = (   0.4999419   0.4786901   1.5464655  )
        24           Pt  tau(  24) = (   0.8329326   0.4808901   1.5422260  )
        25           Pt  tau(  25) = (   0.3330320   0.7696710   1.5415629  )
        26           Pt  tau(  26) = (   0.6667898   0.7695863   1.5415303  )
        27           Pt  tau(  27) = (   0.9999208   0.7701037   1.5422234  )
        28           Pt  tau(  28) = (  -0.0001317  -0.0000959   1.8153167  )
        29           Pt  tau(  29) = (   0.3327633  -0.0004074   1.8155934  )
        30           Pt  tau(  30) = (   0.6668272  -0.0002562   1.8158544  )
        31           Pt  tau(  31) = (   0.1662422   0.2883593   1.8158048  )
        32           Pt  tau(  32) = (   0.5000310   0.2887123   1.8433939  )
        33           Pt  tau(  33) = (   0.8337267   0.2883549   1.8156275  )
        34           Pt  tau(  34) = (   0.3331174   0.5777587   1.8156522  )
        35           Pt  tau(  35) = (   0.6665131   0.5776369   1.8158558  )
        36           Pt  tau(  36) = (   0.9998369   0.5772239   1.8155234  )
        37           C   tau(  37) = (   0.4999758   0.2886472   2.0894481  )
        38           H   tau(  38) = (   0.4054944   0.2107497   2.1280744  )
        39           H   tau(  39) = (   0.6144771   0.2457854   2.1286989  )
        40           H   tau(  40) = (   0.4797439   0.4092228   2.1298744  )

     number of k points=    13  Marzari-Vanderbilt smearing, width (Ry)=  0.0200
                       cart. coord. in units 2pi/alat
        k(    1) = (   0.0000000   0.0000000   0.0000000), wk =   0.0800000
        k(    2) = (   0.0000000   0.2309401   0.0000000), wk =   0.1600000
        k(    3) = (   0.0000000   0.4618802   0.0000000), wk =   0.1600000
        k(    4) = (   0.2000000  -0.1154701   0.0000000), wk =   0.1600000
        k(    5) = (   0.2000000   0.1154701   0.0000000), wk =   0.1600000
        k(    6) = (   0.2000000   0.3464102   0.0000000), wk =   0.1600000
        k(    7) = (   0.2000000  -0.5773503   0.0000000), wk =   0.1600000
        k(    8) = (   0.2000000  -0.3464102   0.0000000), wk =   0.1600000
        k(    9) = (   0.4000000  -0.2309401   0.0000000), wk =   0.1600000
        k(   10) = (   0.4000000  -0.0000000   0.0000000), wk =   0.1600000
        k(   11) = (   0.4000000   0.2309401   0.0000000), wk =   0.1600000
        k(   12) = (   0.4000000  -0.6928203   0.0000000), wk =   0.1600000
        k(   13) = (   0.4000000  -0.4618802   0.0000000), wk =   0.1600000

     Check: negative core charge=   -0.000001

     Initial potential from superposition of free atoms

     starting charge  366.99382, renormalised to  367.00000

     negative rho (up, down):  1.160E-02 0.000E+00

     %%%%%%%%%%%%%%%%%%%%%%%%%%%%%%%%%%%%%%%%%%%%%%%%%%%%%%%%%%%%%%%%%%%%%%%%
     %                                                                      %
     % You are using vdW-DF, which was implemented by the Thonhauser group. %
     % Please cite the following two papers that made this development      %
     % possible and the two reviews that describe the various versions:     %
     %                                                                      %
     %   T. Thonhauser et al., PRL 115, 136402 (2015).                      %
     %   T. Thonhauser et al., PRB 76, 125112 (2007).                       %
     %   K. Berland et al., Rep. Prog. Phys. 78, 066501 (2015).             %
     %   D.C. Langreth et al., J. Phys.: Condens. Matter 21, 084203 (2009). %
     %                                                                      %
     %                                                                      %
     % If you are calculating the stress with vdW-DF, please also cite:     %
     %                                                                      %
     %   R. Sabatini et al., J. Phys.: Condens. Matter 24, 424209 (2012).   %
     %                                                                      %
     %%%%%%%%%%%%%%%%%%%%%%%%%%%%%%%%%%%%%%%%%%%%%%%%%%%%%%%%%%%%%%%%%%%%%%%%

     Starting wfcs are  331 randomized atomic wfcs
     Checking if some PAW data can be deallocated...

     Self-consistent Calculation

     iteration #  1     ecut=    60.00 Ry     beta= 0.70
     Davidson diagonalization with overlap
     ethr =  1.00E-02,  avg # of iterations =  2.4

     Threshold (ethr) on eigenvalues was too large:
     Diagonalizing with lowered threshold

     Davidson diagonalization with overlap
     ethr =  6.20E-04,  avg # of iterations =  3.5

[...]

     total energy              =  -27776.71135562 Ry
     estimated scf accuracy    <       2.51495292 Ry

[...]

     iteration #  6     ecut=    60.00 Ry     beta= 0.70
     Davidson diagonalization with overlap
     c_bands:  1 eigenvalues not converged
     c_bands:  1 eigenvalues not converged
     c_bands:  1 eigenvalues not converged
     ethr =  8.89E-06,  avg # of iterations =  9.7

[...]

     total energy              =  -27776.95679775 Ry
     estimated scf accuracy    <       0.00000150 Ry

     iteration # 19     ecut=    60.00 Ry     beta= 0.70
     Davidson diagonalization with overlap
     ethr =  4.10E-10,  avg # of iterations =  3.0

[...]

     End of self-consistent calculation

          k = 0.0000 0.0000 0.0000 ( 87819 PWs)   bands (ev):

   -10.2049  -6.9204  -5.6242  -4.5517  -4.5182  -4.5177  -4.5171  -4.4976
    -4.4860  -4.4784  -4.4782  -3.9602  -3.9545  -3.9543  -3.9455  -3.9380
    -3.9377  -3.4907  -3.4886  -3.4841  -3.4835  -3.4807  -3.4593  -3.4211
    -3.4062  -3.2776  -3.2580  -3.2550  -3.2549  -3.2332  -3.2298  -3.0387
    -3.0349  -3.0346  -3.0265  -3.0202  -3.0201  -3.0118  -3.0116  -2.9953
    -2.9755  -2.9749  -2.9696  -2.4460  -2.4174  -2.4173  -2.3851  -2.3849
    -2.3378  -2.3284  -2.3283  -2.2903  -2.2896  -2.2262  -2.1906  -2.1506
    -2.1068  -1.7999  -1.6005  -1.5967  -1.5965  -1.5687  -1.5524  -1.5522
    -1.5070  -1.4239  -1.4237  -1.4153  -1.4147  -1.3893  -1.3890  -1.3718
    -1.3648  -1.3647  -1.3467  -1.3413  -1.3412  -1.3099  -1.3098  -1.2711
    -1.1830  -1.1830  -1.1748  -1.1700  -1.1696  -1.0213  -1.0212  -1.0207
    -0.9870  -0.9699  -0.9696  -0.9230  -0.9228  -0.8816  -0.8625  -0.8625
    -0.8106  -0.8104  -0.7537  -0.7537  -0.7141  -0.7141  -0.6524  -0.6521
    -0.5768  -0.5520  -0.5514  -0.5420  -0.4958  -0.4957  -0.1343  -0.1006
    -0.1006  -0.0697  -0.0565  -0.0564  -0.0509  -0.0476   0.0104   0.0104
     0.0218   0.0980   0.0997   0.0999   0.1064   0.2231   0.2509   0.2509
     0.3218   0.3220   0.3643   0.4196   0.4205   0.4283   0.4290   0.4339
     0.4341   0.6687   0.6691   0.6720   0.6880   0.6881   0.7053   0.7499
     0.7499   0.9306   0.9311   0.9363   0.9484   0.9488   1.0068   1.0975
     1.0976   1.1045   1.1179   1.1182   1.1395   1.1397   1.1500   1.1508
     1.1639   1.1640   1.2359   1.2718   1.2720   1.2789   1.2935   1.2935
     1.3028   1.3290   1.3806   1.3807   1.3888   1.3890   1.4088   1.4173
     1.4259   1.4260   1.4962   1.4962   1.5011   1.5166   1.5223   1.5224
     1.5409   1.5861   1.6204   1.6220   1.6223   1.6458   1.6459   1.8284
     1.8292   1.9229   1.9232   1.9582   1.9618   1.9621   1.9723   2.2853
     2.7677   2.8326   2.8330   2.8485   2.8730   2.8735   4.1437   5.1339
     5.1343   5.1557   5.1561   5.1888   5.9389   6.5798   6.7193   6.7563
     6.7635   6.7643   6.7675   6.7780   6.7790

[...]

          k = 0.4000-0.4619 0.0000 ( 87698 PWs)   bands (ev):

   -10.2043  -5.9649  -5.9424  -5.3458  -4.7175  -4.7045  -4.1993  -4.1834
    -4.0508  -4.0137  -3.9109  -3.9021  -3.8060  -3.7956  -3.6991  -3.6842
    -3.6671  -3.6423  -3.6297  -3.6170  -3.6079  -3.4902  -3.4684  -3.4635
    -3.4444  -3.4360  -3.3709  -3.3526  -3.3053  -3.2404  -3.2063  -3.1494
    -3.0617  -3.0561  -3.0464  -3.0268  -3.0121  -2.9234  -2.9158  -2.8252
    -2.8165  -2.6458  -2.6224  -2.5722  -2.4828  -2.4603  -2.4346  -2.4162
    -2.3268  -2.2850  -2.2341  -2.2216  -2.1999  -2.1668  -2.1442  -2.1161
    -2.0355  -2.0093  -1.9967  -1.9805  -1.9724  -1.9605  -1.9510  -1.9172
    -1.8782  -1.7952  -1.7598  -1.7161  -1.7051  -1.6499  -1.5871  -1.5522
    -1.5304  -1.5183  -1.4910  -1.4515  -1.4407  -1.3709  -1.3484  -1.3444
    -1.3173  -1.2916  -1.2745  -1.2123  -1.1948  -1.1603  -1.1158  -1.1069
    -1.0811  -1.0338  -0.9739  -0.9314  -0.9194  -0.9086  -0.8958  -0.8660
    -0.8530  -0.8174  -0.8145  -0.7957  -0.7862  -0.7668  -0.7396  -0.7156
    -0.7025  -0.6916  -0.6856  -0.6702  -0.6412  -0.6282  -0.5890  -0.5523
    -0.4610  -0.3679  -0.3188  -0.2774  -0.2709  -0.1812  -0.1637  -0.1323
    -0.1138  -0.0706  -0.0694  -0.0625  -0.0217  -0.0080   0.0524   0.0819
     0.0964   0.1394   0.1705   0.1932   0.2253   0.2601   0.3704   0.4139
     0.4516   0.4895   0.5067   0.5240   0.5802   0.5971   0.6188   0.6307
     0.6407   0.6740   0.6974   0.7310   0.7867   0.7968   0.8435   0.8708
     0.8836   0.8941   0.9169   0.9241   1.0215   1.0637   1.1447   1.1773
     1.2373   1.2887   1.3238   1.3365   1.4159   1.4567   1.4591   1.5002
     1.5635   1.6104   1.6362   1.6573   1.6796   1.6822   1.7041   1.7316
     1.7544   1.8358   1.8410   1.8486   1.8728   1.8956   1.8972   1.9058
     1.9653   2.0764   2.0842   2.1085   2.1168   2.1252   2.1806   2.2212
     2.3014   2.4334   3.0158   3.2622   3.2651   3.4562   3.5316   3.6455
     3.6569   3.6842   3.9065   4.2657   4.2788   4.4145   4.7398   4.7589
     4.8736   4.8818   4.9113   5.0911   5.1804   5.2565   5.4191   5.6747
     5.7160   5.8674   6.2912   6.3629   6.3735

     the Fermi energy is     1.8819 ev

!    total energy              =  -27776.95679738 Ry

     total all-electron energy =  -1326721.486302 Ry
     estimated scf accuracy    <       0.00000043 Ry
     smearing contrib. (-TS)   =       0.00246915 Ry
     internal energy E=F+TS    =  -27776.95926654 Ry

     The total energy is F=E-TS. E is the sum of the following terms:
     one-electron contribution =  -26000.74546332 Ry
     hartree contribution      =   13301.44020017 Ry
     xc contribution           =    -897.04096111 Ry
     ewald contribution        =   11299.88804226 Ry
     one-center paw contrib.   =  -25480.50108453 Ry

     convergence has been achieved in  19 iterations

[...]

     Forces acting on atoms (cartesian axes, Ry/au):

     atom    1 type  1   force =     0.00006642    0.00002757   -0.00668017
     atom    2 type  1   force =    -0.00056455    0.00003310   -0.00336105
     atom    3 type  1   force =     0.00052610    0.00000971   -0.00341258
     atom    4 type  1   force =    -0.00023636   -0.00050604   -0.00335639
     atom    5 type  1   force =    -0.00004011   -0.00002716   -0.00340130
     atom    6 type  1   force =     0.00032043   -0.00046544   -0.00341139
     atom    7 type  1   force =     0.00027564    0.00047549   -0.00343877
     atom    8 type  1   force =    -0.00023924    0.00051401   -0.00340114
     atom    9 type  1   force =     0.00000510    0.00001338   -0.00331842
     atom   10 type  1   force =    -0.00009787   -0.00013207   -0.00042288
     atom   11 type  1   force =    -0.00015050    0.00210118    0.00944630
     atom   12 type  1   force =     0.00019949   -0.00004606   -0.00041676
     atom   13 type  1   force =     0.00177924   -0.00116902    0.00941784
     atom   14 type  1   force =    -0.00184366   -0.00110364    0.00941857
     atom   15 type  1   force =    -0.00002713   -0.00013419    0.00199953
     atom   16 type  1   force =    -0.00002431    0.00019379   -0.00042117
     atom   17 type  1   force =    -0.00010711    0.00008176    0.00203208
     atom   18 type  1   force =     0.00000063    0.00000023    0.00204040
     atom   19 type  1   force =     0.00002141   -0.00022362    0.00013794
     atom   20 type  1   force =    -0.00050521   -0.00034826   -0.00002966
     atom   21 type  1   force =     0.00051222   -0.00038129    0.00005614
     atom   22 type  1   force =    -0.00056085    0.00040137    0.00000780
     atom   23 type  1   force =     0.00000227    0.00070151   -0.00000387
     atom   24 type  1   force =     0.00060831    0.00042116   -0.00000259
     atom   25 type  1   force =     0.00014748    0.00005924    0.00012237
     atom   26 type  1   force =    -0.00010947    0.00012632    0.00010866
     atom   27 type  1   force =     0.00002922   -0.00065396   -0.00000839
     atom   28 type  1   force =     0.00003808    0.00002541    0.00085466
     atom   29 type  1   force =    -0.00014446    0.00004575    0.00005283
     atom   30 type  1   force =     0.00026597   -0.00003715   -0.00002773
     atom   31 type  1   force =    -0.00011957   -0.00018002    0.00006615
     atom   32 type  1   force =    -0.00018664    0.00028231    0.00099346
     atom   33 type  1   force =     0.00010767   -0.00017580    0.00005025
     atom   34 type  1   force =     0.00015358    0.00019245    0.00004596
     atom   35 type  1   force =    -0.00005309    0.00027184    0.00002171
     atom   36 type  1   force =     0.00004294    0.00006518    0.00051336
     atom   37 type  2   force =    -0.00062833    0.00328606    0.00099579
     atom   38 type  3   force =     0.00074506    0.00025980   -0.00007946
     atom   39 type  3   force =    -0.00073193   -0.00013707   -0.00055799
     atom   40 type  3   force =     0.00052313   -0.00386783   -0.00263010

     Total force =     0.006415     Total SCF correction =     0.001119
     SCF correction compared to forces is large: reduce conv_thr to get better values

[...]

     negative rho (up, down):  1.245E-02 0.000E+00

     negative rho (up, down):  1.245E-02 0.000E+00
 BEEFens 2000 ensemble energies
             -0.599841136144812E+02
             -0.357481031091217E+01
             -0.156816013946542E+02
              0.424654167869950E+02
             -0.219033734475997E+02
             -0.203533917963535E+02
             -0.347252567104797E+02
             -0.854484796157465E+02
             -0.461184844307326E+02
             -0.468592878278740E+02
             -0.365286045360092E+02
              0.221829903215458E+01
              0.402153040641292E+01
              0.767653555711087E+01
              0.260754488477809E+01
              0.469839285924963E+02
             -0.206635670475716E+02
             -0.228890544350263E+02
              0.190464378480563E+02
             -0.111193930056228E+03
              0.530124014121581E+02
             -0.287742467586602E+02
             -0.327624988930384E+01
             -0.113178388159974E+02
             -0.884542832203226E+01
             -0.456030861542649E+01
              0.873332150906283E+02
             -0.184711362979541E+02
             -0.889884806322732E+01
             -0.512235824078522E+02
              0.807925338378229E+02
             -0.186617150133922E+02
             -0.370398922800043E+02
              0.247082530003514E+02
             -0.281577266460044E+01
              0.161062610533139E+02
             -0.487614288330690E+01
              0.108076218645189E+02
              0.284532307504648E+02
             -0.102176036703646E+03
              0.552623664338470E+02
              0.141050900656313E+02
             -0.160282634046393E+01
             -0.358042242494191E+02
              0.121954375274968E+02
             -0.144980307750059E+02
              0.392941188335581E+02
              0.361002888117970E+02
             -0.305989124397219E+02
             -0.271543313933811E+02
             -0.325114600187890E+02
             -0.348256083568848E+02
              0.134310487501688E+02
             -0.485061294172137E+02
              0.113859885483157E+02
              0.616500811673418E+02
              0.627253153156299E+02
              0.352537075915692E+02
              0.152209613827304E+02
              0.267153355132858E+02
[...]
             -0.697999410455044E+02
             -0.916241775205094E+00
             -0.249161928875522E+01
             -0.870235741146894E+01
             -0.185577595403305E+01
             -0.645737781756978E+02
             -0.209465022712870E+02
              0.526398311656787E+01
              0.886321247166910E+01
              0.463393241189409E+02
             -0.393041476265312E+02
              0.651410427834128E+02
             -0.421025629270258E+02
              0.207542531133792E+02
              0.345506602851733E+02

 BEEF-vdW xc energy contributions
           1 :   -774.805313548418
           2 :    712.226044584271
           3 :   -603.723432871193
           4 :    475.776642373379
           5 :   -355.455657271838
           6 :    262.382708847302
           7 :   -204.214346039545
           8 :    176.555033036537
           9 :   -166.893861953832
          10 :    160.694152770630
          11 :   -147.150779208981
          12 :    122.439705605276
          13 :   -89.6052363604839
          14 :    55.6874229512346
          15 :   -27.7400761441501
          16 :    9.54889149844087
          17 :  -0.331346589773830
          18 :   -4.31112197724974
          19 :    9.89742145936407
          20 :   -20.3458743325357
          21 :    36.2801149847254
          22 :   -55.0313473740538
          23 :    72.1637792078644
          24 :   -83.6925205947118
          25 :    87.9034145826045
          26 :   -85.9713748012763
          27 :    81.1889107898298
          28 :   -77.2737246489170
          29 :    76.6085959150973
          30 :   -79.2414185969913
          31 :   -84.8292455765549
          32 :   -65.0969568585961

     Writing output data file ./pwscf.save/

     General routines

     Parallel routines

   This run was terminated on:   0:47:14  27Sep2022

   JOB DONE.