     Program PWSCF v.6.7MaX starts on 26Sep2022 at 14: 6: 8

     Reading input from ch3ch3-ensemble.in
Warning: card &CELL ignored
Warning: card / ignored

     Current dimensions of program PWSCF are:
     Max number of different atomic species (ntypx) = 10
     Max number of k-points (npk) =  40000
     Max angular momentum in pseudopotentials (lmaxx) =  3
     file Pt.pbe-n-kjpaw_psl.1.0.0.UPF: wavefunction(s)  6S 5D renormalized
     file C.pbe-n-kjpaw_psl.1.0.0.UPF: wavefunction(s)  2S 2P renormalized
     file H.pbe-kjpaw_psl.1.0.0.UPF: wavefunction(s)  1S renormalized

     IMPORTANT: XC functional enforced from input :
     Exchange-correlation= BEEF-VDW
                           (   1   4  43  14   2   0   0)
     Any further DFT definition will be discarded
     Please, verify this is what you really want

     Subspace diagonalization in iterative solution of the eigenvalue problem:
     a serial algorithm will be used

     bravais-lattice index     =            0
     lattice parameter (alat)  =      16.0349  a.u.
     unit-cell volume          =   12096.8992 (a.u.)^3
     number of atoms/cell      =           44
     number of atomic types    =            3
     number of electrons       =       374.00
     number of Kohn-Sham states=          224
     kinetic-energy cutoff     =      60.0000  Ry
     charge density cutoff     =     240.0000  Ry
     scf convergence threshold =      1.0E-06
     mixing beta               =       0.7000
     number of iterations used =            8  local-TF  mixing
     Exchange-correlation= BEEF-VDW
                           (   1   4  43  14   2   0   0)

     celldm(1)=  16.034858  celldm(2)=   0.000000  celldm(3)=   0.000000
     celldm(4)=   0.000000  celldm(5)=   0.000000  celldm(6)=   0.000000

     crystal axes: (cart. coord. in units of alat)
               a(1) = (   1.000000   0.000000   0.000000 )
               a(2) = (   0.500000   0.866025   0.000000 )
               a(3) = (   0.000000   0.000000   3.388037 )

     reciprocal axes: (cart. coord. in units 2 pi/alat)
               b(1) = (  1.000000 -0.577350  0.000000 )
               b(2) = (  0.000000  1.154701  0.000000 )
               b(3) = (  0.000000  0.000000  0.295156 )

     PseudoPot. # 1 for Pt read from file:
     /users/bkreitz1/quantum-espresso/potentials/Pt.pbe-n-kjpaw_psl.1.0.0.UPF
     MD5 check sum: 04dc8a03c51ece93fc7b5889c2958091
     Pseudo is Projector augmented-wave + core cor, Zval = 10.0
     Generated using 'atomic' code by A. Dal Corso  v.6.7MaX
     Shape of augmentation charge: PSQ
     Using radial grid of 1277 points,  6 beta functions with:
                l(1) =   0
                l(2) =   0
                l(3) =   1
                l(4) =   1
                l(5) =   2
                l(6) =   2
     Q(r) pseudized with 0 coefficients

     PseudoPot. # 2 for C  read from file:
     /users/bkreitz1/quantum-espresso/potentials/C.pbe-n-kjpaw_psl.1.0.0.UPF
     MD5 check sum: a169b0ebad56f5ec0d79c4633f80bf22
     Pseudo is Projector augmented-wave + core cor, Zval =  4.0
     Generated using 'atomic' code by A. Dal Corso  v.6.7MaX
     Shape of augmentation charge: PSQ
     Using radial grid of 1073 points,  4 beta functions with:
                l(1) =   0
                l(2) =   0
                l(3) =   1
                l(4) =   1
     Q(r) pseudized with 0 coefficients

     PseudoPot. # 3 for H  read from file:
     /users/bkreitz1/quantum-espresso/potentials/H.pbe-kjpaw_psl.1.0.0.UPF
     MD5 check sum: ae98473e6dc62675f0d0baffdab24f65
     Pseudo is Projector augmented-wave, Zval =  1.0
     Generated using 'atomic' code by A. Dal Corso  v.6.7MaX
     Shape of augmentation charge: PSQ
     Using radial grid of  929 points,  2 beta functions with:
                l(1) =   0
                l(2) =   0
     Q(r) pseudized with 0 coefficients

     atomic species   valence    mass     pseudopotential
        Pt            10.00   195.08400     Pt( 1.00)
        C              4.00    12.01100     C ( 1.00)
        H              1.00     1.00800     H ( 1.00)

     No symmetry found

   Cartesian axes

     site n.     atom                  positions (alat units)
         1           Pt  tau(   1) = (   0.0000000   0.0000000   1.0017346  )
         2           Pt  tau(   2) = (   0.3333333   0.0000000   1.0017346  )
         3           Pt  tau(   3) = (   0.6666667   0.0000000   1.0017346  )
         4           Pt  tau(   4) = (   0.1666667   0.2886751   1.0017346  )
         5           Pt  tau(   5) = (   0.5000000   0.2886751   1.0017346  )
         6           Pt  tau(   6) = (   0.8333333   0.2886751   1.0017346  )
         7           Pt  tau(   7) = (   0.3333333   0.5773503   1.0017346  )
         8           Pt  tau(   8) = (   0.6666667   0.5773503   1.0017346  )
         9           Pt  tau(   9) = (   1.0000000   0.5773503   1.0017346  )
        10           Pt  tau(  10) = (   0.1666667   0.0962250   1.2739001  )
        11           Pt  tau(  11) = (   0.5000000   0.0962250   1.2739001  )
        12           Pt  tau(  12) = (   0.8333333   0.0962250   1.2739001  )
        13           Pt  tau(  13) = (   0.3333333   0.3849002   1.2739001  )
        14           Pt  tau(  14) = (   0.6666667   0.3849002   1.2739001  )
        15           Pt  tau(  15) = (   1.0000000   0.3849002   1.2739001  )
        16           Pt  tau(  16) = (   0.5000000   0.6735753   1.2739001  )
        17           Pt  tau(  17) = (   0.8333333   0.6735753   1.2739001  )
        18           Pt  tau(  18) = (   1.1666667   0.6735753   1.2739001  )
        19           Pt  tau(  19) = (  -0.0000158   0.1924531   1.5424793  )
        20           Pt  tau(  20) = (   0.3333256   0.1924493   1.5425005  )
        21           Pt  tau(  21) = (   0.6666863   0.1924584   1.5424851  )
        22           Pt  tau(  22) = (   0.1666458   0.4811267   1.5424821  )
        23           Pt  tau(  23) = (   0.5000178   0.4811318   1.5424886  )
        24           Pt  tau(  24) = (   0.8333341   0.4811212   1.5424593  )
        25           Pt  tau(  25) = (   0.3333348   0.7697963   1.5424872  )
        26           Pt  tau(  26) = (   0.6666577   0.7697770   1.5424892  )
        27           Pt  tau(  27) = (   1.0000007   0.7697722   1.5424927  )
        28           Pt  tau(  28) = (  -0.0000026  -0.0000095   1.8162950  )
        29           Pt  tau(  29) = (   0.3333206  -0.0000440   1.8162869  )
        30           Pt  tau(  30) = (   0.6666775  -0.0000187   1.8162973  )
        31           Pt  tau(  31) = (   0.1666327   0.2886860   1.8162753  )
        32           Pt  tau(  32) = (   0.5000324   0.2887017   1.8162716  )
        33           Pt  tau(  33) = (   0.8333396   0.2886818   1.8162887  )
        34           Pt  tau(  34) = (   0.3333354   0.5773608   1.8162918  )
        35           Pt  tau(  35) = (   0.6666757   0.5773450   1.8162918  )
        36           Pt  tau(  36) = (   0.9999884   0.5773364   1.8162798  )
        37           C   tau(  37) = (   0.2929074   0.2298467   2.2750598  )
        38           C   tau(  38) = (   0.4729779   0.2369153   2.2704391  )
        39           H   tau(  39) = (   0.2465437   0.1562627   2.1798694  )
        40           H   tau(  40) = (   0.2410589   0.3470840   2.2623451  )
        41           H   tau(  41) = (   0.2509686   0.1802141   2.3862986  )
        42           H   tau(  42) = (   0.5248813   0.1191879   2.2782723  )
        43           H   tau(  43) = (   0.5148784   0.2903128   2.1607074  )
        44           H   tau(  44) = (   0.5196139   0.3071339   2.3689822  )

     number of k points=    13  Marzari-Vanderbilt smearing, width (Ry)=  0.0200
                       cart. coord. in units 2pi/alat
        k(    1) = (   0.0000000   0.0000000   0.0000000), wk =   0.0800000
        k(    2) = (   0.0000000   0.2309401   0.0000000), wk =   0.1600000
        k(    3) = (   0.0000000   0.4618802   0.0000000), wk =   0.1600000
        k(    4) = (   0.2000000  -0.1154701   0.0000000), wk =   0.1600000
        k(    5) = (   0.2000000   0.1154701   0.0000000), wk =   0.1600000
        k(    6) = (   0.2000000   0.3464102   0.0000000), wk =   0.1600000
        k(    7) = (   0.2000000  -0.5773503   0.0000000), wk =   0.1600000
        k(    8) = (   0.2000000  -0.3464102   0.0000000), wk =   0.1600000
        k(    9) = (   0.4000000  -0.2309401   0.0000000), wk =   0.1600000
        k(   10) = (   0.4000000  -0.0000000   0.0000000), wk =   0.1600000
        k(   11) = (   0.4000000   0.2309401   0.0000000), wk =   0.1600000
        k(   12) = (   0.4000000  -0.6928203   0.0000000), wk =   0.1600000
        k(   13) = (   0.4000000  -0.4618802   0.0000000), wk =   0.1600000

     Check: negative core charge=   -0.000002

     Initial potential from superposition of free atoms

     starting charge  373.99375, renormalised to  374.00000

     negative rho (up, down):  1.095E-02 0.000E+00

     %%%%%%%%%%%%%%%%%%%%%%%%%%%%%%%%%%%%%%%%%%%%%%%%%%%%%%%%%%%%%%%%%%%%%%%%
     %                                                                      %
     % You are using vdW-DF, which was implemented by the Thonhauser group. %
     % Please cite the following two papers that made this development      %
     % possible and the two reviews that describe the various versions:     %
     %                                                                      %
     %   T. Thonhauser et al., PRL 115, 136402 (2015).                      %
     %   T. Thonhauser et al., PRB 76, 125112 (2007).                       %
     %   K. Berland et al., Rep. Prog. Phys. 78, 066501 (2015).             %
     %   D.C. Langreth et al., J. Phys.: Condens. Matter 21, 084203 (2009). %
     %                                                                      %
     %                                                                      %
     % If you are calculating the stress with vdW-DF, please also cite:     %
     %                                                                      %
     %   R. Sabatini et al., J. Phys.: Condens. Matter 24, 424209 (2012).   %
     %                                                                      %
     %%%%%%%%%%%%%%%%%%%%%%%%%%%%%%%%%%%%%%%%%%%%%%%%%%%%%%%%%%%%%%%%%%%%%%%%

     Starting wfcs are  338 randomized atomic wfcs
     Checking if some PAW data can be deallocated...

     Self-consistent Calculation

     iteration #  1     ecut=    60.00 Ry     beta= 0.70
     Davidson diagonalization with overlap
     ethr =  1.00E-02,  avg # of iterations =  2.9

     Threshold (ethr) on eigenvalues was too large:
     Diagonalizing with lowered threshold

     Davidson diagonalization with overlap
     ethr =  6.44E-04,  avg # of iterations =  3.2

[...]

     total energy              =  -27799.53691088 Ry
     estimated scf accuracy    <       2.61221916 Ry

[...]

     iteration #  4     ecut=    60.00 Ry     beta= 0.70
     Davidson diagonalization with overlap
     c_bands:  1 eigenvalues not converged
     ethr =  9.93E-05,  avg # of iterations = 11.0

[...]

     iteration # 14     ecut=    60.00 Ry     beta= 0.70
     Davidson diagonalization with overlap
     c_bands:  2 eigenvalues not converged
     ethr =  1.87E-07,  avg # of iterations =  7.8

[...]

     total energy              =  -27799.65960945 Ry
     estimated scf accuracy    <       0.00000158 Ry

     iteration # 23     ecut=    60.00 Ry     beta= 0.70
     Davidson diagonalization with overlap
     ethr =  4.21E-10,  avg # of iterations =  4.3

[...]

     End of self-consistent calculation

          k = 0.0000 0.0000 0.0000 ( 95005 PWs)   bands (ev):

   -11.8842  -8.4024  -7.5490  -6.2371  -5.1602  -5.1270  -5.1266  -5.1265
    -5.1263  -5.1262  -5.1261  -5.1134  -4.5688  -4.5679  -4.5678  -4.5676
    -4.5675  -4.5675  -4.0958  -4.0935  -4.0932  -4.0930  -4.0928  -4.0928
    -3.9062  -3.8812  -3.8771  -3.8767  -3.8766  -3.8766  -3.8104  -3.7959
    -3.6514  -3.6512  -3.6455  -3.6453  -3.6288  -3.6285  -3.6285  -3.6282
    -3.6275  -3.6254  -3.6145  -3.6142  -3.0320  -3.0319  -3.0024  -3.0024
    -2.9438  -2.9434  -2.9433  -2.9428  -2.9427  -2.9416  -2.8059  -2.8056
    -2.7056  -2.7042  -2.1963  -2.1950  -2.1941  -2.1935  -2.1934  -2.1932
    -2.1380  -2.1280  -2.0413  -2.0413  -2.0087  -2.0085  -1.9970  -1.9969
    -1.9803  -1.9777  -1.9764  -1.9754  -1.9753  -1.9751  -1.9719  -1.9399
    -1.9398  -1.7905  -1.7795  -1.7794  -1.7790  -1.7790  -1.7784  -1.6286
    -1.6286  -1.6285  -1.6283  -1.6282  -1.6279  -1.5545  -1.5281  -1.5281
    -1.5153  -1.4298  -1.4298  -1.3648  -1.3646  -1.3549  -1.3511  -1.3182
    -1.3177  -1.3063  -1.3011  -1.1537  -1.1532  -1.1525  -1.1518  -1.1499
    -1.1349  -1.1274  -0.6608  -0.6607  -0.6600  -0.6597  -0.6596  -0.6594
    -0.5846  -0.5837  -0.5827  -0.5826  -0.5817  -0.5812  -0.5111  -0.5109
    -0.3389  -0.3380  -0.3370  -0.3368  -0.3341  -0.3316  -0.1952  -0.1950
    -0.1928  -0.1927  -0.1839  -0.1838   0.0712   0.0714   0.0719   0.0724
     0.0724   0.0725   0.1515   0.1516   0.3351   0.3356   0.3357   0.3359
     0.3370   0.3391   0.5056   0.5059   0.5060   0.5060   0.5062   0.5062
     0.5521   0.5529   0.5531   0.5534   0.5569   0.5615   0.6832   0.6840
     0.7028   0.7028   0.7036   0.7038   0.7040   0.7042   0.8093   0.8095
     0.8103   0.8103   0.8105   0.8106   0.8158   0.8158   0.9130   0.9130
     0.9135   0.9137   0.9139   0.9139   1.0173   1.0177   1.0241   1.0243
     1.0256   1.0259   1.1192   1.2425   1.2426   1.3509   1.3511   1.3516
     1.3518   1.3519   1.3520   2.2054   2.2423   2.2436   2.2445   2.2446
     2.2553   2.2629   4.5716   4.5750   4.5756   4.5767   4.5906   4.5918
     5.8011   6.1059   6.1068   6.1629   6.1632   6.1636   6.1638   6.2268

[...]

          k = 0.4000-0.4619 0.0000 ( 94926 PWs)   bands (ev):

   -11.8841  -8.4029  -6.5809  -6.5807  -5.9731  -5.3209  -5.3184  -4.8093
    -4.8048  -4.6742  -4.6409  -4.5310  -4.5307  -4.4231  -4.4229  -4.2989
    -4.2962  -4.2955  -4.2586  -4.2584  -4.2311  -4.2234  -4.1009  -4.0894
    -4.0890  -4.0463  -4.0458  -3.9429  -3.8551  -3.8446  -3.8273  -3.8033
    -3.7513  -3.6732  -3.6730  -3.6545  -3.6541  -3.6386  -3.5247  -3.5239
    -3.4312  -3.4308  -3.2565  -3.2488  -3.1887  -3.0882  -3.0877  -3.0368
    -3.0364  -2.9276  -2.8788  -2.8295  -2.8290  -2.8082  -2.7637  -2.7633
    -2.7326  -2.6275  -2.6269  -2.5971  -2.5968  -2.5877  -2.5873  -2.5862
    -2.5133  -2.5131  -2.3830  -2.3581  -2.3101  -2.3091  -2.1913  -2.1530
    -2.1522  -2.1509  -2.1278  -2.1056  -2.0615  -2.0609  -1.9730  -1.9477
    -1.9473  -1.9418  -1.9107  -1.8797  -1.8276  -1.8272  -1.7884  -1.7311
    -1.7291  -1.7103  -1.7072  -1.6003  -1.5708  -1.5508  -1.5472  -1.5188
    -1.5025  -1.4951  -1.4621  -1.4579  -1.4408  -1.4363  -1.4124  -1.4118
    -1.3603  -1.3581  -1.3291  -1.3135  -1.3115  -1.3112  -1.3084  -1.2893
    -1.2597  -1.1939  -1.1912  -1.1898  -0.9824  -0.9725  -0.8816  -0.8815
    -0.7747  -0.7617  -0.7613  -0.7321  -0.6729  -0.6693  -0.6683  -0.6457
    -0.6435  -0.5597  -0.5277  -0.5266  -0.4582  -0.4356  -0.4303  -0.3738
    -0.3691  -0.3210  -0.1811  -0.1170  -0.1159  -0.0950  -0.0944  -0.0013
     0.0047   0.0056   0.0266   0.0421   0.0473   0.0833   0.0840   0.2028
     0.2039   0.2139   0.2708   0.2717   0.2930   0.3013   0.3167   0.3190
     0.4787   0.5287   0.5558   0.6370   0.6387   0.7204   0.7207   0.8058
     0.8493   0.8546   0.8552   0.9621   0.9632   1.0342   1.0660   1.0743
     1.0852   1.0863   1.1307   1.1328   1.1653   1.2428   1.2430   1.2671
     1.2954   1.2959   1.3019   1.3073   1.3598   1.5010   1.5079   1.5080
     1.5087   1.5090   1.5840   1.6536   1.6978   1.8381   2.6571   2.6572
     2.9003   2.9164   2.9352   3.0618   3.0622   3.0692   3.5183   3.6693
     3.6694   4.1301   4.1591   4.1610   4.2750   4.2755   4.4907   4.5731
     4.6663   4.7106   5.0207   5.1100   5.1114   5.6552   5.7514   5.7521

     the Fermi energy is     1.2742 ev

!    total energy              =  -27799.65960936 Ry

     total all-electron energy =  -1326801.953199 Ry
     estimated scf accuracy    <       0.00000052 Ry
     smearing contrib. (-TS)   =       0.00229085 Ry
     internal energy E=F+TS    =  -27799.66190021 Ry

     The total energy is F=E-TS. E is the sum of the following terms:
     one-electron contribution =  -30185.21277971 Ry
     hartree contribution      =   15388.42892407 Ry
     xc contribution           =    -904.20846937 Ry
     ewald contribution        =   13388.37079111 Ry
     one-center paw contrib.   =  -25487.04036631 Ry

     convergence has been achieved in  23 iterations

[...]

     Forces acting on atoms (cartesian axes, Ry/au):

     atom    1 type  1   force =    -0.00003313   -0.00001264   -0.00322499
     atom    2 type  1   force =    -0.00004184    0.00004414   -0.00315748
     atom    3 type  1   force =     0.00002422   -0.00004533   -0.00317577
     atom    4 type  1   force =    -0.00000949    0.00003233   -0.00310962
     atom    5 type  1   force =    -0.00001502    0.00006179   -0.00311974
     atom    6 type  1   force =    -0.00005266    0.00001730   -0.00309301
     atom    7 type  1   force =    -0.00003959    0.00002655   -0.00309143
     atom    8 type  1   force =    -0.00009205   -0.00003471   -0.00310840
     atom    9 type  1   force =     0.00005195   -0.00001343   -0.00312930
     atom   10 type  1   force =    -0.00005307    0.00004964    0.00289712
     atom   11 type  1   force =     0.00002627    0.00008471    0.00284960
     atom   12 type  1   force =    -0.00003372   -0.00000120    0.00287531
     atom   13 type  1   force =    -0.00000115    0.00007508    0.00279556
     atom   14 type  1   force =    -0.00007642    0.00000861    0.00272938
     atom   15 type  1   force =    -0.00000883    0.00004661    0.00269743
     atom   16 type  1   force =    -0.00009476   -0.00005722    0.00291554
     atom   17 type  1   force =    -0.00001708   -0.00007315    0.00275964
     atom   18 type  1   force =     0.00001448   -0.00005479    0.00288188
     atom   19 type  1   force =     0.00009227   -0.00010895    0.00001020
     atom   20 type  1   force =     0.00002021    0.00005052   -0.00012751
     atom   21 type  1   force =    -0.00017923   -0.00006108   -0.00006893
     atom   22 type  1   force =     0.00017889   -0.00002392    0.00007896
     atom   23 type  1   force =    -0.00018607   -0.00009029    0.00001042
     atom   24 type  1   force =    -0.00006211    0.00001201    0.00018626
     atom   25 type  1   force =    -0.00002135   -0.00001972   -0.00005831
     atom   26 type  1   force =    -0.00014000    0.00011352   -0.00000212
     atom   27 type  1   force =     0.00007454    0.00016783    0.00004806
     atom   28 type  1   force =     0.00000003   -0.00001599    0.00061364
     atom   29 type  1   force =    -0.00001072   -0.00029671    0.00000396
     atom   30 type  1   force =    -0.00006922   -0.00014821    0.00060345
     atom   31 type  1   force =    -0.00032882    0.00021418   -0.00036203
     atom   32 type  1   force =     0.00030661    0.00027326   -0.00080092
     atom   33 type  1   force =     0.00007356    0.00004237    0.00059861
     atom   34 type  1   force =    -0.00013009    0.00003421    0.00063511
     atom   35 type  1   force =     0.00001906    0.00008089    0.00065172
     atom   36 type  1   force =     0.00001574    0.00003807    0.00078059
     atom   37 type  2   force =    -0.00014828   -0.00212366    0.00041408
     atom   38 type  2   force =     0.00314910    0.00348958    0.00755677
     atom   39 type  3   force =     0.00009185    0.00049530    0.00039930
     atom   40 type  3   force =    -0.00019451    0.00023935   -0.00001379
     atom   41 type  3   force =     0.00012283    0.00035909   -0.00060036
     atom   42 type  3   force =    -0.00022453    0.00062489   -0.00016536
     atom   43 type  3   force =     0.00053112    0.00071546    0.00047098
     atom   44 type  3   force =    -0.00252898   -0.00421629   -0.00805447

     Total force =     0.013398     Total SCF correction =     0.001883
     SCF correction compared to forces is large: reduce conv_thr to get better values

[...]

     negative rho (up, down):  1.250E-02 0.000E+00

     negative rho (up, down):  1.250E-02 0.000E+00
 BEEFens 2000 ensemble energies
             -0.605198340437948E+02
             -0.358680981387309E+01
             -0.157831428639716E+02
              0.428366075906078E+02
             -0.220847174073553E+02
             -0.204822437998710E+02
             -0.351429327414280E+02
             -0.862636555887789E+02
             -0.463998986176950E+02
             -0.471628891216517E+02
             -0.368206376835101E+02
              0.228082308618148E+01
              0.403982409338300E+01
              0.762921492613867E+01
              0.263998063094721E+01
              0.473748518517832E+02
             -0.208308995217737E+02
             -0.229548220980033E+02
              0.192253018713799E+02
             -0.112122406649119E+03
              0.534830779523408E+02
             -0.289206534966110E+02
             -0.333163921253248E+01
             -0.113990973531266E+02
             -0.880372379615324E+01
             -0.459375534648640E+01
              0.880706986221538E+02
             -0.186728814633777E+02
             -0.896590095816964E+01
             -0.516838676435979E+02
              0.813430379144786E+02
             -0.186791784499251E+02
             -0.373781814566599E+02
              0.248506019836672E+02
             -0.284262290930963E+01
              0.163454051891335E+02
             -0.486221697153172E+01
              0.108051708269143E+02
              0.287686288070474E+02
             -0.103002393210691E+03
              0.557313414380072E+02
              0.142078841977262E+02
             -0.171901053003603E+01
             -0.360426173782486E+02
              0.122944616797442E+02
             -0.146667781611632E+02
              0.397147196088979E+02
              0.363910235416793E+02
             -0.307473514962027E+02
             -0.274034230112145E+02
             -0.327519584384232E+02
             -0.351413114710106E+02
              0.136257445135960E+02
             -0.489437101585926E+02
              0.115321121919471E+02
              0.621619636734309E+02
              0.633604116531260E+02
              0.355300655942225E+02
              0.153647280598432E+02
              0.269982249139031E+02
[...]
             -0.704347101814004E+02
             -0.853996428347955E+00
             -0.247574140865834E+01
             -0.879089838591722E+01
             -0.183857121808342E+01
             -0.651174765029067E+02
             -0.210053097136742E+02
              0.538656235081168E+01
              0.898968923079104E+01
              0.467642076367481E+02
             -0.396535053561062E+02
              0.655744407600718E+02
             -0.424252063886013E+02
              0.209946426010982E+02
              0.349153169333587E+02

 BEEF-vdW xc energy contributions
           1 :   -780.667315221006
           2 :    716.937634379001
           3 :   -606.839222886704
           4 :    477.520432385487
           5 :   -356.302412314730
           6 :    262.751429651111
           7 :   -204.369513825886
           8 :    176.620499920182
           9 :   -166.902159629284
          10 :    160.636099588999
          11 :   -147.019323449688
          12 :    122.256942743675
          13 :   -89.4185629588434
          14 :    55.5391901818698
          15 :   -27.6457383374700
          16 :    9.50060776642090
          17 :  -0.315120786671969
          18 :   -4.30462766214475
          19 :    9.87212394725987
          20 :   -20.3063356189190
          21 :    36.2375877054504
          22 :   -55.0054713036554
          23 :    72.1793467768142
          24 :   -83.7722950343384
          25 :    88.0570624730016
          26 :   -86.1850873627344
          27 :    81.4264242533884
          28 :   -77.4915701152663
          29 :    76.7723023371251
          30 :   -79.3349698504763
          31 :   -85.6511170223464
          32 :   -65.5934971572533

     Writing output data file ./pwscf.save/

     General routines

     Parallel routines

   This run was terminated on:  18:53:14  26Sep2022

   JOB DONE.