     Program PWSCF v.6.7MaX starts on 20May2022 at 16:57:37

     Reading input from ch3choh-ensemble.in
Warning: card &CELL ignored
Warning: card / ignored

     Current dimensions of program PWSCF are:
     Max number of different atomic species (ntypx) = 10
     Max number of k-points (npk) =  40000
     Max angular momentum in pseudopotentials (lmaxx) =  3
     file Pt.pbe-n-kjpaw_psl.1.0.0.UPF: wavefunction(s)  6S 5D renormalized
     file C.pbe-n-kjpaw_psl.1.0.0.UPF: wavefunction(s)  2S 2P renormalized
     file O.pbe-nl-kjpaw_psl.1.0.0.UPF: wavefunction(s)  2S 2P renormalized
     file H.pbe-kjpaw_psl.1.0.0.UPF: wavefunction(s)  1S renormalized

     IMPORTANT: XC functional enforced from input :
     Exchange-correlation= BEEF-VDW
                           (   1   4  43  14   2   0   0)
     Any further DFT definition will be discarded
     Please, verify this is what you really want

     Subspace diagonalization in iterative solution of the eigenvalue problem:
     a serial algorithm will be used

     bravais-lattice index     =            0
     lattice parameter (alat)  =      16.0349  a.u.
     unit-cell volume          =   11821.7818 (a.u.)^3
     number of atoms/cell      =           44
     number of atomic types    =            4
     number of electrons       =       379.00
     number of Kohn-Sham states=          228
     kinetic-energy cutoff     =      60.0000  Ry
     charge density cutoff     =     240.0000  Ry
     scf convergence threshold =      1.0E-06
     mixing beta               =       0.7000
     number of iterations used =            8  local-TF  mixing
     Exchange-correlation= BEEF-VDW
                           (   1   4  43  14   2   0   0)

     celldm(1)=  16.034858  celldm(2)=   0.000000  celldm(3)=   0.000000
     celldm(4)=   0.000000  celldm(5)=   0.000000  celldm(6)=   0.000000

     crystal axes: (cart. coord. in units of alat)
               a(1) = (   1.000000   0.000000   0.000000 )
               a(2) = (   0.500000   0.866025   0.000000 )
               a(3) = (   0.000000   0.000000   3.310983 )

     reciprocal axes: (cart. coord. in units 2 pi/alat)
               b(1) = (  1.000000 -0.577350  0.000000 )
               b(2) = (  0.000000  1.154701  0.000000 )
               b(3) = (  0.000000  0.000000  0.302025 )

     PseudoPot. # 1 for Pt read from file:
     /users/bkreitz1/quantum-espresso/potentials/Pt.pbe-n-kjpaw_psl.1.0.0.UPF
     MD5 check sum: 04dc8a03c51ece93fc7b5889c2958091
     Pseudo is Projector augmented-wave + core cor, Zval = 10.0
     Generated using 'atomic' code by A. Dal Corso  v.6.7MaX
     Shape of augmentation charge: PSQ
     Using radial grid of 1277 points,  6 beta functions with:
                l(1) =   0
                l(2) =   0
                l(3) =   1
                l(4) =   1
                l(5) =   2
                l(6) =   2
     Q(r) pseudized with 0 coefficients

     PseudoPot. # 2 for C  read from file:
     /users/bkreitz1/quantum-espresso/potentials/C.pbe-n-kjpaw_psl.1.0.0.UPF
     MD5 check sum: a169b0ebad56f5ec0d79c4633f80bf22
     Pseudo is Projector augmented-wave + core cor, Zval =  4.0
     Generated using 'atomic' code by A. Dal Corso  v.6.7MaX
     Shape of augmentation charge: PSQ
     Using radial grid of 1073 points,  4 beta functions with:
                l(1) =   0
                l(2) =   0
                l(3) =   1
                l(4) =   1
     Q(r) pseudized with 0 coefficients

     PseudoPot. # 3 for O  read from file:
     /users/bkreitz1/quantum-espresso/potentials/O.pbe-nl-kjpaw_psl.1.0.0.UPF
     MD5 check sum: eef08af8b58d9ec80f8fdb78829eb7cf
     Pseudo is Projector augmented-wave + core cor, Zval =  6.0
     Generated using 'atomic' code by A. Dal Corso  v.6.7MaX
     Shape of augmentation charge: PSQ
     Using radial grid of 1095 points,  4 beta functions with:
                l(1) =   0
                l(2) =   0
                l(3) =   1
                l(4) =   1
     Q(r) pseudized with 0 coefficients

     PseudoPot. # 4 for H  read from file:
     /users/bkreitz1/quantum-espresso/potentials/H.pbe-kjpaw_psl.1.0.0.UPF
     MD5 check sum: ae98473e6dc62675f0d0baffdab24f65
     Pseudo is Projector augmented-wave, Zval =  1.0
     Generated using 'atomic' code by A. Dal Corso  v.6.7MaX
     Shape of augmentation charge: PSQ
     Using radial grid of  929 points,  2 beta functions with:
                l(1) =   0
                l(2) =   0
     Q(r) pseudized with 0 coefficients

     atomic species   valence    mass     pseudopotential
        Pt            10.00   195.08400     Pt( 1.00)
        C              4.00    12.01100     C ( 1.00)
        O              6.00    15.99900     O ( 1.00)
        H              1.00     1.00800     H ( 1.00)

     No symmetry found

   Cartesian axes

     site n.     atom                  positions (alat units)
         1           Pt  tau(   1) = (   0.0000000   0.0000000   1.0017346  )
         2           Pt  tau(   2) = (   0.3333333   0.0000000   1.0017346  )
         3           Pt  tau(   3) = (   0.6666667   0.0000000   1.0017346  )
         4           Pt  tau(   4) = (   0.1666667   0.2886751   1.0017346  )
         5           Pt  tau(   5) = (   0.5000000   0.2886751   1.0017346  )
         6           Pt  tau(   6) = (   0.8333333   0.2886751   1.0017346  )
         7           Pt  tau(   7) = (   0.3333333   0.5773503   1.0017346  )
         8           Pt  tau(   8) = (   0.6666667   0.5773503   1.0017346  )
         9           Pt  tau(   9) = (   1.0000000   0.5773503   1.0017346  )
        10           Pt  tau(  10) = (   0.1666667   0.0962250   1.2739001  )
        11           Pt  tau(  11) = (   0.5000000   0.0962250   1.2739001  )
        12           Pt  tau(  12) = (   0.8333333   0.0962250   1.2739001  )
        13           Pt  tau(  13) = (   0.3333333   0.3849002   1.2739001  )
        14           Pt  tau(  14) = (   0.6666667   0.3849002   1.2739001  )
        15           Pt  tau(  15) = (   1.0000000   0.3849002   1.2739001  )
        16           Pt  tau(  16) = (   0.5000000   0.6735753   1.2739001  )
        17           Pt  tau(  17) = (   0.8333333   0.6735753   1.2739001  )
        18           Pt  tau(  18) = (   1.1666667   0.6735753   1.2739001  )
        19           Pt  tau(  19) = (   0.0007673   0.1924413   1.5414840  )
        20           Pt  tau(  20) = (   0.3362625   0.1939938   1.5468790  )
        21           Pt  tau(  21) = (   0.6652456   0.1936575   1.5467450  )
        22           Pt  tau(  22) = (   0.1671982   0.4810121   1.5422906  )
        23           Pt  tau(  23) = (   0.5006529   0.4785391   1.5469258  )
        24           Pt  tau(  24) = (   0.8336779   0.4810338   1.5426085  )
        25           Pt  tau(  25) = (   0.3339430   0.7697029   1.5410555  )
        26           Pt  tau(  26) = (   0.6670898   0.7694983   1.5415605  )
        27           Pt  tau(  27) = (   1.0005303   0.7700114   1.5424226  )
        28           Pt  tau(  28) = (   0.0010097   0.0000204   1.8156475  )
        29           Pt  tau(  29) = (   0.3336195  -0.0002345   1.8148831  )
        30           Pt  tau(  30) = (   0.6684914  -0.0005285   1.8157198  )
        31           Pt  tau(  31) = (   0.1676581   0.2886093   1.8161375  )
        32           Pt  tau(  32) = (   0.5010741   0.2887307   1.8480432  )
        33           Pt  tau(  33) = (   0.8350395   0.2884755   1.8157612  )
        34           Pt  tau(  34) = (   0.3345706   0.5777545   1.8149730  )
        35           Pt  tau(  35) = (   0.6675004   0.5769101   1.8165362  )
        36           Pt  tau(  36) = (   1.0009595   0.5773333   1.8164378  )
        37           C   tau(  37) = (   0.5159764   0.2738838   2.1001719  )
        38           C   tau(  38) = (   0.4317124   0.4066224   2.1825102  )
        39           O   tau(  39) = (   0.4539629   0.1304405   2.1500486  )
        40           H   tau(  40) = (   0.6442774   0.2781171   2.1125183  )
        41           H   tau(  41) = (   0.4492658   0.3925966   2.3097430  )
        42           H   tau(  42) = (   0.4794206   0.5203618   2.1466962  )
        43           H   tau(  43) = (   0.3053212   0.4040113   2.1589900  )
        44           H   tau(  44) = (   0.5198752   0.0453273   2.1114418  )

     number of k points=    13  Marzari-Vanderbilt smearing, width (Ry)=  0.0200
                       cart. coord. in units 2pi/alat
        k(    1) = (   0.0000000   0.0000000   0.0000000), wk =   0.0800000
        k(    2) = (   0.0000000   0.2309401   0.0000000), wk =   0.1600000
        k(    3) = (   0.0000000   0.4618802   0.0000000), wk =   0.1600000
        k(    4) = (   0.2000000  -0.1154701   0.0000000), wk =   0.1600000
        k(    5) = (   0.2000000   0.1154701   0.0000000), wk =   0.1600000
        k(    6) = (   0.2000000   0.3464102   0.0000000), wk =   0.1600000
        k(    7) = (   0.2000000  -0.5773503   0.0000000), wk =   0.1600000
        k(    8) = (   0.2000000  -0.3464102   0.0000000), wk =   0.1600000
        k(    9) = (   0.4000000  -0.2309401   0.0000000), wk =   0.1600000
        k(   10) = (   0.4000000  -0.0000000   0.0000000), wk =   0.1600000
        k(   11) = (   0.4000000   0.2309401   0.0000000), wk =   0.1600000
        k(   12) = (   0.4000000  -0.6928203   0.0000000), wk =   0.1600000
        k(   13) = (   0.4000000  -0.4618802   0.0000000), wk =   0.1600000

     Check: negative core charge=   -0.000002

     Initial potential from superposition of free atoms

     starting charge  378.99376, renormalised to  379.00000

     negative rho (up, down):  1.169E-02 0.000E+00

     %%%%%%%%%%%%%%%%%%%%%%%%%%%%%%%%%%%%%%%%%%%%%%%%%%%%%%%%%%%%%%%%%%%%%%%%
     %                                                                      %
     % You are using vdW-DF, which was implemented by the Thonhauser group. %
     % Please cite the following two papers that made this development      %
     % possible and the two reviews that describe the various versions:     %
     %                                                                      %
     %   T. Thonhauser et al., PRL 115, 136402 (2015).                      %
     %   T. Thonhauser et al., PRB 76, 125112 (2007).                       %
     %   K. Berland et al., Rep. Prog. Phys. 78, 066501 (2015).             %
     %   D.C. Langreth et al., J. Phys.: Condens. Matter 21, 084203 (2009). %
     %                                                                      %
     %                                                                      %
     % If you are calculating the stress with vdW-DF, please also cite:     %
     %                                                                      %
     %   R. Sabatini et al., J. Phys.: Condens. Matter 24, 424209 (2012).   %
     %                                                                      %
     %%%%%%%%%%%%%%%%%%%%%%%%%%%%%%%%%%%%%%%%%%%%%%%%%%%%%%%%%%%%%%%%%%%%%%%%

     Starting wfcs are  341 randomized atomic wfcs
     Checking if some PAW data can be deallocated...

     Self-consistent Calculation

     iteration #  1     ecut=    60.00 Ry     beta= 0.70
     Davidson diagonalization with overlap
     ethr =  1.00E-02,  avg # of iterations =  2.6

     Threshold (ethr) on eigenvalues was too large:
     Diagonalizing with lowered threshold

     Davidson diagonalization with overlap
     ethr =  7.39E-04,  avg # of iterations =  2.9

[...]

     total energy              =  -27840.65742182 Ry
     estimated scf accuracy    <       3.01780288 Ry

[...]

     iteration #  4     ecut=    60.00 Ry     beta= 0.70
     Davidson diagonalization with overlap
     c_bands:  1 eigenvalues not converged
     ethr =  1.11E-04,  avg # of iterations =  9.8

[...]

     iteration #  9     ecut=    60.00 Ry     beta= 0.70
     Davidson diagonalization with overlap
     c_bands:  1 eigenvalues not converged
     c_bands:  1 eigenvalues not converged
     c_bands:  1 eigenvalues not converged
     ethr =  2.87E-06,  avg # of iterations = 11.8

[...]

     total energy              =  -27840.90058256 Ry
     estimated scf accuracy    <       0.00000141 Ry

     iteration # 21     ecut=    60.00 Ry     beta= 0.70
     Davidson diagonalization with overlap
     ethr =  3.71E-10,  avg # of iterations =  2.0

[...]

     End of self-consistent calculation

          k = 0.0000 0.0000 0.0000 ( 92867 PWs)   bands (ev):

   -20.1914 -12.5097  -8.8974  -7.1675  -7.0423  -5.8248  -4.9168  -4.7142
    -4.7067  -4.7035  -4.7014  -4.6829  -4.6624  -4.6596  -4.5717  -4.1581
    -4.1444  -4.1410  -4.1308  -4.1212  -4.1074  -4.0904  -3.6789  -3.6759
    -3.6673  -3.6589  -3.6529  -3.6239  -3.4695  -3.4563  -3.4506  -3.4485
    -3.4426  -3.4004  -3.2687  -3.2287  -3.2264  -3.2216  -3.2136  -3.2115
    -3.2044  -3.2023  -3.1848  -3.1721  -3.1645  -3.1527  -3.1462  -2.7625
    -2.6085  -2.6063  -2.5859  -2.5720  -2.5661  -2.5289  -2.5131  -2.5105
    -2.5094  -2.4600  -2.3799  -2.3645  -2.3051  -2.2848  -2.1494  -1.8760
    -1.7879  -1.7853  -1.7711  -1.7501  -1.7393  -1.7098  -1.6220  -1.6134
    -1.6059  -1.6044  -1.5820  -1.5758  -1.5708  -1.5541  -1.5535  -1.5383
    -1.5307  -1.5295  -1.4996  -1.4971  -1.4878  -1.4036  -1.3793  -1.3756
    -1.3634  -1.3606  -1.3061  -1.2100  -1.2062  -1.2039  -1.1710  -1.1546
    -1.1520  -1.1091  -1.1083  -1.0637  -1.0545  -1.0050  -1.0019  -0.9441
    -0.9439  -0.9049  -0.9044  -0.8559  -0.8390  -0.8240  -0.7543  -0.7483
    -0.7379  -0.7228  -0.7003  -0.6197  -0.3246  -0.3025  -0.2911  -0.2615
    -0.2485  -0.2475  -0.2402  -0.1911  -0.1809  -0.1797  -0.1397  -0.1053
    -0.0940  -0.0800  -0.0124   0.0470   0.0552   0.0596   0.1105   0.1227
     0.1866   0.2037   0.2327   0.2400   0.2464   0.2496   0.3240   0.4656
     0.4751   0.4854   0.4899   0.4955   0.5180   0.5567   0.5572   0.7345
     0.7405   0.7446   0.7592   0.7629   0.8278   0.9046   0.9083   0.9189
     0.9221   0.9285   0.9400   0.9437   0.9569   0.9618   0.9660   0.9700
     1.0401   1.0758   1.0826   1.0837   1.0988   1.1014   1.1115   1.1399
     1.1870   1.1903   1.1931   1.1957   1.2181   1.2266   1.2333   1.2373
     1.3048   1.3057   1.3280   1.3315   1.3345   1.3509   1.3536   1.4201
     1.4309   1.4319   1.4597   1.4606   1.4964   1.6337   1.6403   1.7301
     1.7317   1.7682   1.7705   1.7726   1.7847   2.1736   2.5630   2.6113
     2.6409   2.6428   2.6561   2.6858   3.8917   4.8505   4.9021   4.9581
     4.9753   4.9860   5.6975   5.8167   6.4616   6.5214   6.5455   6.5656
     6.5710   6.5864   6.5939   6.8360

[...]

          k = 0.4000-0.4619 0.0000 ( 92772 PWs)   bands (ev):

   -20.1914 -12.5098  -8.8968  -7.1032  -6.1511  -6.1275  -5.5345  -5.0294
    -4.9053  -4.6857  -4.3766  -4.3446  -4.2371  -4.1958  -4.1417  -4.0842
    -4.0792  -3.9822  -3.9701  -3.8781  -3.8642  -3.8488  -3.8277  -3.8106
    -3.7829  -3.7752  -3.6674  -3.6490  -3.6338  -3.5996  -3.5910  -3.5230
    -3.4392  -3.3943  -3.3571  -3.2684  -3.2470  -3.2411  -3.2281  -3.2052
    -3.1836  -3.1084  -3.0980  -3.0136  -2.9889  -2.8309  -2.8093  -2.7796
    -2.7559  -2.6831  -2.6266  -2.6129  -2.6001  -2.4927  -2.4505  -2.4201
    -2.3992  -2.3751  -2.3438  -2.3339  -2.3084  -2.2631  -2.2036  -2.1827
    -2.1712  -2.1618  -2.1503  -2.1461  -2.1052  -2.0994  -2.0486  -1.9475
    -1.9153  -1.8938  -1.8560  -1.7746  -1.7616  -1.7327  -1.7129  -1.6868
    -1.6647  -1.6402  -1.6205  -1.5371  -1.5344  -1.5225  -1.4822  -1.4776
    -1.4457  -1.3951  -1.3472  -1.3141  -1.3089  -1.2868  -1.2719  -1.1939
    -1.1365  -1.1188  -1.1022  -1.0885  -1.0660  -1.0512  -1.0405  -1.0065
    -0.9987  -0.9745  -0.9592  -0.9384  -0.9259  -0.9050  -0.8912  -0.8810
    -0.8662  -0.8572  -0.8273  -0.7986  -0.7804  -0.7234  -0.5714  -0.5455
    -0.4682  -0.4609  -0.4033  -0.3747  -0.3453  -0.3146  -0.2813  -0.2736
    -0.2576  -0.2202  -0.2161  -0.1504  -0.1253  -0.0998  -0.0642  -0.0505
     0.0008   0.0273   0.0428   0.0685   0.2118   0.2263   0.2548   0.2955
     0.3120   0.3524   0.3900   0.3997   0.4271   0.4421   0.4522   0.4833
     0.5033   0.5416   0.5913   0.6044   0.6468   0.6754   0.6883   0.7080
     0.7215   0.7406   0.8369   0.8679   0.9567   0.9800   1.0415   1.0946
     1.1352   1.1498   1.2195   1.2613   1.2687   1.3093   1.3635   1.4200
     1.4452   1.4657   1.4854   1.4958   1.5152   1.5475   1.5616   1.6431
     1.6495   1.6659   1.6845   1.7000   1.7062   1.7282   1.7779   1.8830
     1.8934   1.9176   1.9249   1.9362   1.9912   2.0319   2.1121   2.2381
     2.9131   3.0726   3.0785   3.2179   3.3343   3.4490   3.4523   3.4854
     3.6905   4.0576   4.0841   4.1868   4.5293   4.5464   4.6642   4.6728
     4.7059   4.8871   4.9650   4.9888   5.2167   5.4578   5.5117   5.6070
     6.0196   6.1646   6.1731   6.3878

     the Fermi energy is     1.6928 ev

!    total energy              =  -27840.90058218 Ry

     total all-electron energy =  -1326952.041071 Ry
     estimated scf accuracy    <       0.00000031 Ry
     smearing contrib. (-TS)   =       0.00298009 Ry
     internal energy E=F+TS    =  -27840.90356226 Ry

     The total energy is F=E-TS. E is the sum of the following terms:
     one-electron contribution =  -29388.44712181 Ry
     hartree contribution      =   14997.68253149 Ry
     xc contribution           =    -911.18294434 Ry
     ewald contribution        =   12958.22556291 Ry
     one-center paw contrib.   =  -25497.18159052 Ry

     convergence has been achieved in  21 iterations

[...]

     Forces acting on atoms (cartesian axes, Ry/au):

     atom    1 type  1   force =    -0.00025398    0.00001586   -0.00694278
     atom    2 type  1   force =    -0.00060625    0.00007408   -0.00334399
     atom    3 type  1   force =     0.00044618    0.00008611   -0.00340887
     atom    4 type  1   force =    -0.00037638   -0.00032698   -0.00334382
     atom    5 type  1   force =    -0.00009094   -0.00008787   -0.00323289
     atom    6 type  1   force =     0.00019056   -0.00049699   -0.00347234
     atom    7 type  1   force =     0.00032970    0.00065761   -0.00365749
     atom    8 type  1   force =    -0.00047314    0.00056347   -0.00314409
     atom    9 type  1   force =    -0.00004332   -0.00001514   -0.00331037
     atom   10 type  1   force =     0.00057871    0.00010567   -0.00078687
     atom   11 type  1   force =     0.00000073    0.00220332    0.00954818
     atom   12 type  1   force =     0.00022949    0.00040449   -0.00065615
     atom   13 type  1   force =     0.00203699   -0.00104336    0.00954610
     atom   14 type  1   force =    -0.00136839   -0.00091691    0.00947313
     atom   15 type  1   force =    -0.00005759   -0.00001781    0.00207243
     atom   16 type  1   force =     0.00084343   -0.00014594   -0.00139363
     atom   17 type  1   force =     0.00011901   -0.00011323    0.00188021
     atom   18 type  1   force =    -0.00003013   -0.00008476    0.00215722
     atom   19 type  1   force =    -0.00002802    0.00000666    0.00010975
     atom   20 type  1   force =    -0.00020235   -0.00016822   -0.00002981
     atom   21 type  1   force =     0.00019995   -0.00016407   -0.00000453
     atom   22 type  1   force =    -0.00001231   -0.00007395    0.00014101
     atom   23 type  1   force =    -0.00009198    0.00026874   -0.00021867
     atom   24 type  1   force =     0.00000151   -0.00006020    0.00000139
     atom   25 type  1   force =    -0.00002134   -0.00007550    0.00023774
     atom   26 type  1   force =     0.00005011    0.00002072    0.00003114
     atom   27 type  1   force =    -0.00006726   -0.00002490    0.00008713
     atom   28 type  1   force =    -0.00009406   -0.00008141    0.00014022
     atom   29 type  1   force =    -0.00006154   -0.00008548    0.00020088
     atom   30 type  1   force =    -0.00021534   -0.00013835    0.00032441
     atom   31 type  1   force =    -0.00020755   -0.00010477    0.00038224
     atom   32 type  1   force =    -0.00005800   -0.00010575    0.00053693
     atom   33 type  1   force =    -0.00007911   -0.00003845    0.00023966
     atom   34 type  1   force =    -0.00036427    0.00000787    0.00026571
     atom   35 type  1   force =    -0.00002822    0.00006158    0.00005496
     atom   36 type  1   force =    -0.00015868   -0.00008007    0.00003967
     atom   37 type  2   force =     0.00064330   -0.00206535   -0.00484713
     atom   38 type  2   force =    -0.00085500    0.00110394    0.00077388
     atom   39 type  3   force =    -0.00318090    0.00440985    0.00334518
     atom   40 type  4   force =    -0.00024348    0.00003517    0.00075367
     atom   41 type  4   force =    -0.00000083    0.00035691    0.00087731
     atom   42 type  4   force =    -0.00037167   -0.00048807    0.00026526
     atom   43 type  4   force =     0.00036283   -0.00005320    0.00035762
     atom   44 type  4   force =     0.00360951   -0.00332532   -0.00204964

     Total force =     0.010171     Total SCF correction =     0.002142
     SCF correction compared to forces is large: reduce conv_thr to get better values

[...]

     negative rho (up, down):  1.319E-02 0.000E+00

     negative rho (up, down):  1.319E-02 0.000E+00
 BEEFens 2000 ensemble energies
             -0.610244227464947E+02
             -0.362799274919922E+01
             -0.159038669100110E+02
              0.431883124011577E+02
             -0.222364804255094E+02
             -0.206189868105597E+02
             -0.354889236064220E+02
             -0.870204835360917E+02
             -0.467010101457759E+02
             -0.474748640476678E+02
             -0.371290696262202E+02
              0.232059748800275E+01
              0.408536731265423E+01
              0.760222185605346E+01
              0.267775807674448E+01
              0.477469572797164E+02
             -0.209865652781270E+02
             -0.230686459570887E+02
              0.194075355366887E+02
             -0.112993902643156E+03
              0.539440654114900E+02
             -0.290859115898210E+02
             -0.337805527197910E+01
             -0.114646656686255E+02
             -0.881621648199427E+01
             -0.464757981658187E+01
              0.887514472849084E+02
             -0.188504640104838E+02
             -0.904460911629246E+01
             -0.521377882645658E+02
              0.819107736443827E+02
             -0.187498419964052E+02
             -0.377109295188483E+02
              0.250212680051198E+02
             -0.286289124756087E+01
              0.165573296769907E+02
             -0.484467340161297E+01
              0.108144410725572E+02
              0.290385082899563E+02
             -0.103803253853283E+03
              0.561488272711400E+02
              0.143091530733989E+02
             -0.179016617255047E+01
             -0.363132674674497E+02
              0.123817714690346E+02
             -0.147983968468701E+02
              0.401049718998872E+02
              0.366691427087781E+02
             -0.309120266063485E+02
             -0.276682874862254E+02
             -0.330028677276931E+02
             -0.354179705534549E+02
              0.137561599548227E+02
             -0.493635571627057E+02
              0.116529241325770E+02
              0.626469370854485E+02
              0.639454510541647E+02
              0.357706681842367E+02
              0.154945988873688E+02
              0.272383738968435E+02
[...]
             -0.710230780117550E+02
             -0.848644338398913E+00
             -0.246767399089075E+01
             -0.888149138517451E+01
             -0.179964159458615E+01
             -0.656298456253188E+02
             -0.211099981864562E+02
              0.546411036222239E+01
              0.907685575607564E+01
              0.471578977176084E+02
             -0.399980359070518E+02
              0.660062372576269E+02
             -0.427372215447967E+02
              0.211908310139593E+02
              0.352555054654317E+02

 BEEF-vdW xc energy contributions
           1 :   -786.658819362492
           2 :    722.353969658078
           3 :   -611.164742027481
           4 :    480.480129474878
           5 :   -357.959360120493
           6 :    263.424759170869
           7 :   -204.455582053990
           8 :    176.443792197586
           9 :   -166.651634869483
          10 :    160.379118933886
          11 :   -146.750008915749
          12 :    121.949352179055
          13 :   -89.0704023267330
          14 :    55.1905129385203
          15 :   -27.3596767467761
          16 :    9.32556434995718
          17 :  -0.256852167220131
          18 :   -4.28533158321102
          19 :    9.83847209205021
          20 :   -20.3121028971860
          21 :    36.2996492963326
          22 :   -55.0958402722302
          23 :    72.2414053290568
          24 :   -83.7508200764287
          25 :    87.9288062185741
          26 :   -85.9751406229185
          27 :    81.1977206481375
          28 :   -77.3131298575015
          29 :    76.6851577258093
          30 :   -79.3326327279484
          31 :   -86.3240764979039
          32 :   -66.0834451775075

     Writing output data file ./pwscf.save/

     General routines

     Parallel routines

   This run was terminated on:  21:26:56  20May2022

   JOB DONE.