     Program PWSCF v.6.7MaX starts on 20May2022 at 16:57:37

     Reading input from ch3coh-ensemble.in
Warning: card &CELL ignored
Warning: card / ignored

     Current dimensions of program PWSCF are:
     Max number of different atomic species (ntypx) = 10
     Max number of k-points (npk) =  40000
     Max angular momentum in pseudopotentials (lmaxx) =  3
     file Pt.pbe-n-kjpaw_psl.1.0.0.UPF: wavefunction(s)  6S 5D renormalized
     file C.pbe-n-kjpaw_psl.1.0.0.UPF: wavefunction(s)  2S 2P renormalized
     file O.pbe-nl-kjpaw_psl.1.0.0.UPF: wavefunction(s)  2S 2P renormalized
     file H.pbe-kjpaw_psl.1.0.0.UPF: wavefunction(s)  1S renormalized

     IMPORTANT: XC functional enforced from input :
     Exchange-correlation= BEEF-VDW
                           (   1   4  43  14   2   0   0)
     Any further DFT definition will be discarded
     Please, verify this is what you really want

     Subspace diagonalization in iterative solution of the eigenvalue problem:
     a serial algorithm will be used

     bravais-lattice index     =            0
     lattice parameter (alat)  =      16.0349  a.u.
     unit-cell volume          =   11809.4901 (a.u.)^3
     number of atoms/cell      =           43
     number of atomic types    =            4
     number of electrons       =       378.00
     number of Kohn-Sham states=          227
     kinetic-energy cutoff     =      60.0000  Ry
     charge density cutoff     =     240.0000  Ry
     scf convergence threshold =      1.0E-06
     mixing beta               =       0.7000
     number of iterations used =            8  local-TF  mixing
     Exchange-correlation= BEEF-VDW
                           (   1   4  43  14   2   0   0)

     celldm(1)=  16.034858  celldm(2)=   0.000000  celldm(3)=   0.000000
     celldm(4)=   0.000000  celldm(5)=   0.000000  celldm(6)=   0.000000

     crystal axes: (cart. coord. in units of alat)
               a(1) = (   1.000000   0.000000   0.000000 )
               a(2) = (   0.500000   0.866025   0.000000 )
               a(3) = (   0.000000   0.000000   3.307540 )

     reciprocal axes: (cart. coord. in units 2 pi/alat)
               b(1) = (  1.000000 -0.577350  0.000000 )
               b(2) = (  0.000000  1.154701  0.000000 )
               b(3) = (  0.000000  0.000000  0.302339 )

     PseudoPot. # 1 for Pt read from file:
     /users/bkreitz1/quantum-espresso/potentials/Pt.pbe-n-kjpaw_psl.1.0.0.UPF
     MD5 check sum: 04dc8a03c51ece93fc7b5889c2958091
     Pseudo is Projector augmented-wave + core cor, Zval = 10.0
     Generated using 'atomic' code by A. Dal Corso  v.6.7MaX
     Shape of augmentation charge: PSQ
     Using radial grid of 1277 points,  6 beta functions with:
                l(1) =   0
                l(2) =   0
                l(3) =   1
                l(4) =   1
                l(5) =   2
                l(6) =   2
     Q(r) pseudized with 0 coefficients

     PseudoPot. # 2 for C  read from file:
     /users/bkreitz1/quantum-espresso/potentials/C.pbe-n-kjpaw_psl.1.0.0.UPF
     MD5 check sum: a169b0ebad56f5ec0d79c4633f80bf22
     Pseudo is Projector augmented-wave + core cor, Zval =  4.0
     Generated using 'atomic' code by A. Dal Corso  v.6.7MaX
     Shape of augmentation charge: PSQ
     Using radial grid of 1073 points,  4 beta functions with:
                l(1) =   0
                l(2) =   0
                l(3) =   1
                l(4) =   1
     Q(r) pseudized with 0 coefficients

     PseudoPot. # 3 for O  read from file:
     /users/bkreitz1/quantum-espresso/potentials/O.pbe-nl-kjpaw_psl.1.0.0.UPF
     MD5 check sum: eef08af8b58d9ec80f8fdb78829eb7cf
     Pseudo is Projector augmented-wave + core cor, Zval =  6.0
     Generated using 'atomic' code by A. Dal Corso  v.6.7MaX
     Shape of augmentation charge: PSQ
     Using radial grid of 1095 points,  4 beta functions with:
                l(1) =   0
                l(2) =   0
                l(3) =   1
                l(4) =   1
     Q(r) pseudized with 0 coefficients

     PseudoPot. # 4 for H  read from file:
     /users/bkreitz1/quantum-espresso/potentials/H.pbe-kjpaw_psl.1.0.0.UPF
     MD5 check sum: ae98473e6dc62675f0d0baffdab24f65
     Pseudo is Projector augmented-wave, Zval =  1.0
     Generated using 'atomic' code by A. Dal Corso  v.6.7MaX
     Shape of augmentation charge: PSQ
     Using radial grid of  929 points,  2 beta functions with:
                l(1) =   0
                l(2) =   0
     Q(r) pseudized with 0 coefficients

     atomic species   valence    mass     pseudopotential
        Pt            10.00   195.08400     Pt( 1.00)
        C              4.00    12.01100     C ( 1.00)
        O              6.00    15.99900     O ( 1.00)
        H              1.00     1.00800     H ( 1.00)

     No symmetry found

   Cartesian axes

     site n.     atom                  positions (alat units)
         1           Pt  tau(   1) = (   0.0000000   0.0000000   1.0017346  )
         2           Pt  tau(   2) = (   0.3333333   0.0000000   1.0017346  )
         3           Pt  tau(   3) = (   0.6666667   0.0000000   1.0017346  )
         4           Pt  tau(   4) = (   0.1666667   0.2886751   1.0017346  )
         5           Pt  tau(   5) = (   0.5000000   0.2886751   1.0017346  )
         6           Pt  tau(   6) = (   0.8333333   0.2886751   1.0017346  )
         7           Pt  tau(   7) = (   0.3333333   0.5773503   1.0017346  )
         8           Pt  tau(   8) = (   0.6666667   0.5773503   1.0017346  )
         9           Pt  tau(   9) = (   1.0000000   0.5773503   1.0017346  )
        10           Pt  tau(  10) = (   0.1666667   0.0962250   1.2739001  )
        11           Pt  tau(  11) = (   0.5000000   0.0962250   1.2739001  )
        12           Pt  tau(  12) = (   0.8333333   0.0962250   1.2739001  )
        13           Pt  tau(  13) = (   0.3333333   0.3849002   1.2739001  )
        14           Pt  tau(  14) = (   0.6666667   0.3849002   1.2739001  )
        15           Pt  tau(  15) = (   1.0000000   0.3849002   1.2739001  )
        16           Pt  tau(  16) = (   0.5000000   0.6735753   1.2739001  )
        17           Pt  tau(  17) = (   0.8333333   0.6735753   1.2739001  )
        18           Pt  tau(  18) = (   1.1666667   0.6735753   1.2739001  )
        19           Pt  tau(  19) = (   0.0020812   0.1928452   1.5419922  )
        20           Pt  tau(  20) = (   0.3381198   0.1942756   1.5490572  )
        21           Pt  tau(  21) = (   0.6664821   0.1941436   1.5490733  )
        22           Pt  tau(  22) = (   0.1687074   0.4810107   1.5428273  )
        23           Pt  tau(  23) = (   0.5024114   0.4785587   1.5482092  )
        24           Pt  tau(  24) = (   0.8355372   0.4810570   1.5429318  )
        25           Pt  tau(  25) = (   0.3356223   0.7700078   1.5406104  )
        26           Pt  tau(  26) = (   0.6686811   0.7702945   1.5409218  )
        27           Pt  tau(  27) = (   1.0021448   0.7700037   1.5428172  )
        28           Pt  tau(  28) = (   0.0039673   0.0001388   1.8169895  )
        29           Pt  tau(  29) = (   0.3360801  -0.0024750   1.8163539  )
        30           Pt  tau(  30) = (   0.6718710  -0.0024596   1.8167770  )
        31           Pt  tau(  31) = (   0.1685096   0.2886013   1.8178382  )
        32           Pt  tau(  32) = (   0.5036994   0.2897163   1.8469838  )
        33           Pt  tau(  33) = (   0.8397130   0.2885452   1.8177851  )
        34           Pt  tau(  34) = (   0.3365219   0.5800754   1.8151893  )
        35           Pt  tau(  35) = (   0.6721420   0.5800102   1.8156588  )
        36           Pt  tau(  36) = (   1.0043055   0.5772721   1.8183434  )
        37           C   tau(  37) = (   0.5068847   0.2794104   2.0741034  )
        38           C   tau(  38) = (   0.4901230   0.4164262   2.1836032  )
        39           O   tau(  39) = (   0.5271954   0.1459349   2.1502686  )
        40           H   tau(  40) = (   0.5963431   0.4891440   2.1732798  )
        41           H   tau(  41) = (   0.3914551   0.4905183   2.1472097  )
        42           H   tau(  42) = (   0.4761197   0.3763802   2.3050365  )
        43           H   tau(  43) = (   0.5421287   0.0594723   2.0739922  )

     number of k points=    13  Marzari-Vanderbilt smearing, width (Ry)=  0.0200
                       cart. coord. in units 2pi/alat
        k(    1) = (   0.0000000   0.0000000   0.0000000), wk =   0.0800000
        k(    2) = (   0.0000000   0.2309401   0.0000000), wk =   0.1600000
        k(    3) = (   0.0000000   0.4618802   0.0000000), wk =   0.1600000
        k(    4) = (   0.2000000  -0.1154701   0.0000000), wk =   0.1600000
        k(    5) = (   0.2000000   0.1154701   0.0000000), wk =   0.1600000
        k(    6) = (   0.2000000   0.3464102   0.0000000), wk =   0.1600000
        k(    7) = (   0.2000000  -0.5773503   0.0000000), wk =   0.1600000
        k(    8) = (   0.2000000  -0.3464102   0.0000000), wk =   0.1600000
        k(    9) = (   0.4000000  -0.2309401   0.0000000), wk =   0.1600000
        k(   10) = (   0.4000000  -0.0000000   0.0000000), wk =   0.1600000
        k(   11) = (   0.4000000   0.2309401   0.0000000), wk =   0.1600000
        k(   12) = (   0.4000000  -0.6928203   0.0000000), wk =   0.1600000
        k(   13) = (   0.4000000  -0.4618802   0.0000000), wk =   0.1600000

     Check: negative core charge=   -0.000002

     Initial potential from superposition of free atoms

     starting charge  377.99377, renormalised to  378.00000

     negative rho (up, down):  1.154E-02 0.000E+00

     %%%%%%%%%%%%%%%%%%%%%%%%%%%%%%%%%%%%%%%%%%%%%%%%%%%%%%%%%%%%%%%%%%%%%%%%
     %                                                                      %
     % You are using vdW-DF, which was implemented by the Thonhauser group. %
     % Please cite the following two papers that made this development      %
     % possible and the two reviews that describe the various versions:     %
     %                                                                      %
     %   T. Thonhauser et al., PRL 115, 136402 (2015).                      %
     %   T. Thonhauser et al., PRB 76, 125112 (2007).                       %
     %   K. Berland et al., Rep. Prog. Phys. 78, 066501 (2015).             %
     %   D.C. Langreth et al., J. Phys.: Condens. Matter 21, 084203 (2009). %
     %                                                                      %
     %                                                                      %
     % If you are calculating the stress with vdW-DF, please also cite:     %
     %                                                                      %
     %   R. Sabatini et al., J. Phys.: Condens. Matter 24, 424209 (2012).   %
     %                                                                      %
     %%%%%%%%%%%%%%%%%%%%%%%%%%%%%%%%%%%%%%%%%%%%%%%%%%%%%%%%%%%%%%%%%%%%%%%%

     Starting wfcs are  340 randomized atomic wfcs
     Checking if some PAW data can be deallocated...

     Self-consistent Calculation

     iteration #  1     ecut=    60.00 Ry     beta= 0.70
     Davidson diagonalization with overlap
     ethr =  1.00E-02,  avg # of iterations =  2.5

     Threshold (ethr) on eigenvalues was too large:
     Diagonalizing with lowered threshold

     Davidson diagonalization with overlap
     ethr =  6.64E-04,  avg # of iterations =  3.4

[...]

     total energy              =  -27839.35517158 Ry
     estimated scf accuracy    <       2.74648363 Ry

[...]

     iteration #  6     ecut=    60.00 Ry     beta= 0.70
     Davidson diagonalization with overlap
     c_bands:  1 eigenvalues not converged
     c_bands:  1 eigenvalues not converged
     ethr =  1.91E-05,  avg # of iterations =  9.9

[...]

     iteration # 14     ecut=    60.00 Ry     beta= 0.70
     Davidson diagonalization with overlap
     c_bands:  1 eigenvalues not converged
     ethr =  1.13E-07,  avg # of iterations =  4.6

[...]

     total energy              =  -27839.67626723 Ry
     estimated scf accuracy    <       0.00000118 Ry

     iteration # 19     ecut=    60.00 Ry     beta= 0.70
     Davidson diagonalization with overlap
     ethr =  3.12E-10,  avg # of iterations =  3.2

[...]

     End of self-consistent calculation

          k = 0.0000 0.0000 0.0000 ( 92771 PWs)   bands (ev):

   -21.9400 -13.2498  -9.6802  -7.5615  -6.9080  -5.6454  -5.4006  -5.2598
    -4.6109  -4.5475  -4.5415  -4.5349  -4.5275  -4.4969  -4.4920  -4.4856
    -4.0317  -3.9898  -3.9866  -3.9770  -3.9670  -3.9636  -3.9317  -3.6262
    -3.5481  -3.5146  -3.5092  -3.5005  -3.4940  -3.4711  -3.3750  -3.2887
    -3.2867  -3.2838  -3.2728  -3.2690  -3.1923  -3.0780  -3.0721  -3.0704
    -3.0676  -3.0641  -3.0389  -3.0332  -3.0238  -3.0186  -3.0175  -2.9689
    -2.8660  -2.4841  -2.4570  -2.4319  -2.4239  -2.3970  -2.3853  -2.3801
    -2.3681  -2.3649  -2.3210  -2.2098  -2.1881  -2.1336  -1.9911  -1.7629
    -1.6918  -1.6603  -1.6396  -1.6345  -1.6194  -1.5484  -1.5077  -1.4927
    -1.4441  -1.4428  -1.4299  -1.4264  -1.4117  -1.4059  -1.4040  -1.3737
    -1.3697  -1.3669  -1.3393  -1.3336  -1.3095  -1.2613  -1.2465  -1.2172
    -1.2155  -1.2025  -1.0764  -1.0692  -1.0445  -1.0376  -1.0250  -1.0118
    -0.9974  -0.9925  -0.9783  -0.9334  -0.9310  -0.8672  -0.8612  -0.8556
    -0.7876  -0.7858  -0.7795  -0.7450  -0.7431  -0.6723  -0.6541  -0.6298
    -0.5943  -0.5866  -0.5755  -0.3444  -0.2282  -0.2030  -0.1578  -0.1055
    -0.0966  -0.0936  -0.0793  -0.0783  -0.0437  -0.0360  -0.0338  -0.0191
     0.0434   0.0776   0.1613   0.1770   0.1840   0.1988   0.2227   0.2732
     0.2806   0.2873   0.3812   0.3998   0.4063   0.4250   0.5562   0.5655
     0.6452   0.6464   0.6527   0.6822   0.7154   0.7194   0.8565   0.8729
     0.8916   0.9113   0.9193   0.9607   1.0079   1.0122   1.0561   1.0609
     1.0790   1.0909   1.0969   1.0992   1.1017   1.1100   1.1308   1.1578
     1.1676   1.1925   1.1966   1.2026   1.2219   1.2751   1.3040   1.3124
     1.3155   1.3381   1.3439   1.3648   1.3715   1.3854   1.3955   1.3992
     1.4623   1.4644   1.4821   1.4922   1.4932   1.5141   1.5245   1.5744
     1.5852   1.5880   1.6169   1.6201   1.7696   1.7901   1.8754   1.8844
     1.9157   1.9203   1.9233   1.9417   2.1230   2.6374   2.7163   2.7285
     2.7707   2.7854   2.7937   3.5904   3.9090   4.9553   5.0352   5.0533
     5.0745   5.1268   5.6391   5.9276   6.4330   6.6677   6.6798   6.6991
     6.7254   6.7407   6.7599

[...]

          k = 0.4000-0.4619 0.0000 ( 92680 PWs)   bands (ev):

   -21.9400 -13.2499  -9.6792  -7.5400  -5.9847  -5.9426  -5.4033  -5.3606
    -5.2653  -4.7546  -4.7237  -4.2424  -4.1978  -4.0714  -4.0368  -3.9887
    -3.9307  -3.9162  -3.8189  -3.8059  -3.7479  -3.7176  -3.7009  -3.6686
    -3.6522  -3.6455  -3.6310  -3.5770  -3.5253  -3.4859  -3.4785  -3.4504
    -3.4301  -3.3687  -3.2920  -3.2521  -3.2057  -3.1588  -3.1127  -3.0905
    -3.0715  -3.0583  -3.0022  -2.9713  -2.9428  -2.8482  -2.7803  -2.6540
    -2.6471  -2.6146  -2.5440  -2.4944  -2.4570  -2.4372  -2.3283  -2.2880
    -2.2692  -2.2450  -2.2197  -2.1776  -2.1500  -2.1246  -2.0790  -2.0572
    -2.0422  -2.0304  -1.9999  -1.9939  -1.9747  -1.9375  -1.9009  -1.8303
    -1.7882  -1.7456  -1.7256  -1.6568  -1.6090  -1.5808  -1.5694  -1.5412
    -1.5134  -1.4845  -1.4548  -1.4324  -1.4018  -1.3792  -1.3558  -1.3193
    -1.2862  -1.2664  -1.2414  -1.1791  -1.1725  -1.1513  -1.0884  -1.0559
    -1.0119  -0.9876  -0.9605  -0.9456  -0.9316  -0.9003  -0.8949  -0.8664
    -0.8500  -0.8298  -0.8123  -0.7994  -0.7830  -0.7649  -0.7410  -0.7226
    -0.7081  -0.6960  -0.6800  -0.6717  -0.6301  -0.5882  -0.4819  -0.4146
    -0.3511  -0.3263  -0.2991  -0.2271  -0.2096  -0.1892  -0.1572  -0.1438
    -0.1086  -0.0847  -0.0538  -0.0166  -0.0012   0.0387   0.0633   0.0758
     0.1527   0.1729   0.2022   0.2705   0.3249   0.3837   0.4041   0.4439
     0.4697   0.4853   0.5286   0.5628   0.5834   0.5985   0.6196   0.6362
     0.6673   0.7175   0.7355   0.7869   0.8122   0.8310   0.8419   0.8629
     0.8825   0.9533   1.0019   1.0711   1.1217   1.1876   1.2301   1.2833
     1.2975   1.3450   1.4014   1.4156   1.4497   1.5074   1.5515   1.5905
     1.6131   1.6350   1.6397   1.6582   1.6861   1.7083   1.7872   1.7921
     1.7993   1.8295   1.8526   1.8547   1.8656   1.9324   2.0173   2.0347
     2.0666   2.0745   2.0876   2.1333   2.1508   2.2596   2.3640   2.7722
     3.1296   3.2262   3.2675   3.3397   3.4690   3.5735   3.5834   3.7525
     3.7974   4.2032   4.2452   4.3005   4.6612   4.7018   4.7741   4.8208
     4.8707   5.0284   5.1185   5.1496   5.3025   5.5789   5.6625   5.7494
     6.1112   6.3099   6.3318

     the Fermi energy is     1.8513 ev

!    total energy              =  -27839.67626727 Ry

     total all-electron energy =  -1326950.816760 Ry
     estimated scf accuracy    <       0.00000051 Ry
     smearing contrib. (-TS)   =       0.00202601 Ry
     internal energy E=F+TS    =  -27839.67829329 Ry

     The total energy is F=E-TS. E is the sum of the following terms:
     one-electron contribution =  -29308.25748590 Ry
     hartree contribution      =   14958.44156961 Ry
     xc contribution           =    -910.32635218 Ry
     ewald contribution        =   12917.66679598 Ry
     one-center paw contrib.   =  -25497.20282079 Ry

     convergence has been achieved in  19 iterations

[...]

     Forces acting on atoms (cartesian axes, Ry/au):

     atom    1 type  1   force =    -0.00018462    0.00007051   -0.00914104
     atom    2 type  1   force =    -0.00111373    0.00001148   -0.00351843
     atom    3 type  1   force =     0.00048130    0.00001467   -0.00351251
     atom    4 type  1   force =    -0.00070676   -0.00082448   -0.00339193
     atom    5 type  1   force =    -0.00039209   -0.00017938   -0.00358814
     atom    6 type  1   force =     0.00022243   -0.00084175   -0.00346499
     atom    7 type  1   force =     0.00005813    0.00065620   -0.00354080
     atom    8 type  1   force =    -0.00067148    0.00077014   -0.00342510
     atom    9 type  1   force =    -0.00026792    0.00009690   -0.00338608
     atom   10 type  1   force =     0.00092442    0.00060885    0.00036210
     atom   11 type  1   force =     0.00072200    0.00318829    0.01145225
     atom   12 type  1   force =     0.00071991    0.00074361    0.00017647
     atom   13 type  1   force =     0.00326602   -0.00167755    0.01100361
     atom   14 type  1   force =    -0.00140312   -0.00163510    0.01107303
     atom   15 type  1   force =     0.00077457   -0.00011522    0.00252741
     atom   16 type  1   force =     0.00136414   -0.00066573   -0.00295102
     atom   17 type  1   force =     0.00100363   -0.00016474    0.00170618
     atom   18 type  1   force =     0.00050021   -0.00027516    0.00192139
     atom   19 type  1   force =    -0.00011251   -0.00003764    0.00029067
     atom   20 type  1   force =    -0.00026303    0.00002622   -0.00034374
     atom   21 type  1   force =    -0.00003618   -0.00007337   -0.00049550
     atom   22 type  1   force =    -0.00009858   -0.00007707    0.00018523
     atom   23 type  1   force =    -0.00028366    0.00011843   -0.00040701
     atom   24 type  1   force =    -0.00018437   -0.00006215    0.00007349
     atom   25 type  1   force =    -0.00009888    0.00008720    0.00052568
     atom   26 type  1   force =    -0.00009669    0.00000379    0.00050825
     atom   27 type  1   force =    -0.00012835    0.00000080    0.00009154
     atom   28 type  1   force =    -0.00034606    0.00000015   -0.00039365
     atom   29 type  1   force =    -0.00054942    0.00018522   -0.00001117
     atom   30 type  1   force =    -0.00031406   -0.00010264   -0.00004643
     atom   31 type  1   force =    -0.00044088   -0.00008511   -0.00012828
     atom   32 type  1   force =    -0.00019279   -0.00046181    0.00115686
     atom   33 type  1   force =    -0.00033239   -0.00004202   -0.00038181
     atom   34 type  1   force =    -0.00069662    0.00015905    0.00003686
     atom   35 type  1   force =    -0.00034164    0.00010855   -0.00006953
     atom   36 type  1   force =    -0.00044746   -0.00005466   -0.00027550
     atom   37 type  2   force =     0.00061206    0.00086174    0.00100162
     atom   38 type  2   force =    -0.00104215   -0.00063899   -0.00099360
     atom   39 type  3   force =    -0.00096714    0.00709687    0.00633756
     atom   40 type  4   force =    -0.00074625   -0.00069032   -0.00013470
     atom   41 type  4   force =     0.00048589   -0.00077793    0.00005042
     atom   42 type  4   force =     0.00002011    0.00058773   -0.00051642
     atom   43 type  4   force =     0.00130404   -0.00591358   -0.00636325

     Total force =     0.013451     Total SCF correction =     0.002541
     SCF correction compared to forces is large: reduce conv_thr to get better values

[...]

     negative rho (up, down):  1.299E-02 0.000E+00

     negative rho (up, down):  1.299E-02 0.000E+00
 BEEFens 2000 ensemble energies
             -0.609585616284728E+02
             -0.362622940764857E+01
             -0.158960230098922E+02
              0.431375687607112E+02
             -0.222110987110343E+02
             -0.206076083710772E+02
             -0.354280527936678E+02
             -0.869182936088129E+02
             -0.466778629191189E+02
             -0.474446779947826E+02
             -0.370905197783655E+02
              0.230290878720542E+01
              0.408660343890170E+01
              0.761759543998508E+01
              0.267410986935090E+01
              0.476968215463519E+02
             -0.209704588017205E+02
             -0.230764239723460E+02
              0.193881480414126E+02
             -0.112879459581706E+03
              0.538849539171114E+02
             -0.290706353548608E+02
             -0.336792648170156E+01
             -0.114533302269762E+02
             -0.883226085269553E+01
             -0.465370330772774E+01
              0.886643913963650E+02
             -0.188050202496989E+02
             -0.904195115392133E+01
             -0.520829411773983E+02
              0.818620632752181E+02
             -0.187641812134578E+02
             -0.376725241790900E+02
              0.250119700398298E+02
             -0.285567001343458E+01
              0.165213000998420E+02
             -0.484934911469776E+01
              0.108170536998447E+02
              0.289904882582027E+02
             -0.103712489669060E+03
              0.560871538582331E+02
              0.142931655812241E+02
             -0.176095743222265E+01
             -0.362925240158227E+02
              0.123682604529240E+02
             -0.147599177079125E+02
              0.400508847525482E+02
              0.366359131199856E+02
             -0.309028520461645E+02
             -0.276426776985559E+02
             -0.329733339032064E+02
             -0.353751020216494E+02
              0.137233681179660E+02
             -0.493141765822165E+02
              0.116288132868211E+02
              0.625845818128334E+02
              0.638567657121968E+02
              0.357337925277666E+02
              0.154821264976201E+02
              0.271948637605527E+02
[...]
             -0.709418050767376E+02
             -0.871502848958585E+00
             -0.246638091192985E+01
             -0.886921565498994E+01
             -0.179617027625176E+01
             -0.655649513365787E+02
             -0.211167190151469E+02
              0.544580062418709E+01
              0.905143961374165E+01
              0.471000750723533E+02
             -0.399495588238003E+02
              0.659685343858129E+02
             -0.426969646128675E+02
              0.211510881565096E+02
              0.352093425849515E+02

 BEEF-vdW xc energy contributions
           1 :   -785.985705384537
           2 :    721.873411780553
           3 :   -610.951083410909
           4 :    480.469356052914
           5 :   -358.023923285643
           6 :    263.462270127230
           7 :   -204.427339332741
           8 :    176.363809499016
           9 :   -166.556706839027
          10 :    160.301842285589
          11 :   -146.703661923718
          12 :    121.925867953096
          13 :   -89.0463366975752
          14 :    55.1375288370376
          15 :   -27.2601358048803
          16 :    9.18233859413328
          17 :  -8.917014548217139E-002
          18 :   -4.45342435226894
          19 :    9.98996211640190
          20 :   -20.4450335242271
          21 :    36.4258169708486
          22 :   -55.2307076109687
          23 :    72.3906674910173
          24 :   -83.9022158203537
          25 :    88.0566627333809
          26 :   -86.0547383419282
          27 :    81.2187344316895
          28 :   -77.2840449769690
          29 :    76.6278862668487
          30 :   -79.2722178068192
          31 :   -86.2200116626562
          32 :   -66.0330663977380

     Writing output data file ./pwscf.save/

     General routines

     Parallel routines

   This run was terminated on:  21:11: 8  20May2022

   JOB DONE.