     Program PWSCF v.6.7MaX starts on 20May2022 at 16:13:27

     Reading input from ch3ch2co-ensemble.in
Warning: card &CELL ignored
Warning: card / ignored

     Current dimensions of program PWSCF are:
     Max number of different atomic species (ntypx) = 10
     Max number of k-points (npk) =  40000
     Max angular momentum in pseudopotentials (lmaxx) =  3
     file Pt.pbe-n-kjpaw_psl.1.0.0.UPF: wavefunction(s)  6S 5D renormalized
     file C.pbe-n-kjpaw_psl.1.0.0.UPF: wavefunction(s)  2S 2P renormalized
     file O.pbe-nl-kjpaw_psl.1.0.0.UPF: wavefunction(s)  2S 2P renormalized
     file H.pbe-kjpaw_psl.1.0.0.UPF: wavefunction(s)  1S renormalized

     IMPORTANT: XC functional enforced from input :
     Exchange-correlation= BEEF-VDW
                           (   1   4  43  14   2   0   0)
     Any further DFT definition will be discarded
     Please, verify this is what you really want

     Subspace diagonalization in iterative solution of the eigenvalue problem:
     a serial algorithm will be used

     bravais-lattice index     =            0
     lattice parameter (alat)  =      16.0349  a.u.
     unit-cell volume          =   11795.7537 (a.u.)^3
     number of atoms/cell      =           45
     number of atomic types    =            4
     number of electrons       =       383.00
     number of Kohn-Sham states=          230
     kinetic-energy cutoff     =      60.0000  Ry
     charge density cutoff     =     240.0000  Ry
     scf convergence threshold =      1.0E-06
     mixing beta               =       0.7000
     number of iterations used =            8  local-TF  mixing
     Exchange-correlation= BEEF-VDW
                           (   1   4  43  14   2   0   0)

     celldm(1)=  16.034858  celldm(2)=   0.000000  celldm(3)=   0.000000
     celldm(4)=   0.000000  celldm(5)=   0.000000  celldm(6)=   0.000000

     crystal axes: (cart. coord. in units of alat)
               a(1) = (   1.000000   0.000000   0.000000 )
               a(2) = (   0.500000   0.866025   0.000000 )
               a(3) = (   0.000000   0.000000   3.303693 )

     reciprocal axes: (cart. coord. in units 2 pi/alat)
               b(1) = (  1.000000 -0.577350  0.000000 )
               b(2) = (  0.000000  1.154701  0.000000 )
               b(3) = (  0.000000  0.000000  0.302692 )

     PseudoPot. # 1 for Pt read from file:
     /users/bkreitz1/quantum-espresso/potentials/Pt.pbe-n-kjpaw_psl.1.0.0.UPF
     MD5 check sum: 04dc8a03c51ece93fc7b5889c2958091
     Pseudo is Projector augmented-wave + core cor, Zval = 10.0
     Generated using 'atomic' code by A. Dal Corso  v.6.7MaX
     Shape of augmentation charge: PSQ
     Using radial grid of 1277 points,  6 beta functions with:
                l(1) =   0
                l(2) =   0
                l(3) =   1
                l(4) =   1
                l(5) =   2
                l(6) =   2
     Q(r) pseudized with 0 coefficients

     PseudoPot. # 2 for C  read from file:
     /users/bkreitz1/quantum-espresso/potentials/C.pbe-n-kjpaw_psl.1.0.0.UPF
     MD5 check sum: a169b0ebad56f5ec0d79c4633f80bf22
     Pseudo is Projector augmented-wave + core cor, Zval =  4.0
     Generated using 'atomic' code by A. Dal Corso  v.6.7MaX
     Shape of augmentation charge: PSQ
     Using radial grid of 1073 points,  4 beta functions with:
                l(1) =   0
                l(2) =   0
                l(3) =   1
                l(4) =   1
     Q(r) pseudized with 0 coefficients

     PseudoPot. # 3 for O  read from file:
     /users/bkreitz1/quantum-espresso/potentials/O.pbe-nl-kjpaw_psl.1.0.0.UPF
     MD5 check sum: eef08af8b58d9ec80f8fdb78829eb7cf
     Pseudo is Projector augmented-wave + core cor, Zval =  6.0
     Generated using 'atomic' code by A. Dal Corso  v.6.7MaX
     Shape of augmentation charge: PSQ
     Using radial grid of 1095 points,  4 beta functions with:
                l(1) =   0
                l(2) =   0
                l(3) =   1
                l(4) =   1
     Q(r) pseudized with 0 coefficients

     PseudoPot. # 4 for H  read from file:
     /users/bkreitz1/quantum-espresso/potentials/H.pbe-kjpaw_psl.1.0.0.UPF
     MD5 check sum: ae98473e6dc62675f0d0baffdab24f65
     Pseudo is Projector augmented-wave, Zval =  1.0
     Generated using 'atomic' code by A. Dal Corso  v.6.7MaX
     Shape of augmentation charge: PSQ
     Using radial grid of  929 points,  2 beta functions with:
                l(1) =   0
                l(2) =   0
     Q(r) pseudized with 0 coefficients

     atomic species   valence    mass     pseudopotential
        Pt            10.00   195.08400     Pt( 1.00)
        C              4.00    12.01100     C ( 1.00)
        O              6.00    15.99900     O ( 1.00)
        H              1.00     1.00800     H ( 1.00)

     No symmetry found

   Cartesian axes

     site n.     atom                  positions (alat units)
         1           Pt  tau(   1) = (   0.0000000   0.0000000   1.0017346  )
         2           Pt  tau(   2) = (   0.3333333   0.0000000   1.0017346  )
         3           Pt  tau(   3) = (   0.6666667   0.0000000   1.0017346  )
         4           Pt  tau(   4) = (   0.1666667   0.2886751   1.0017346  )
         5           Pt  tau(   5) = (   0.5000000   0.2886751   1.0017346  )
         6           Pt  tau(   6) = (   0.8333333   0.2886751   1.0017346  )
         7           Pt  tau(   7) = (   0.3333333   0.5773503   1.0017346  )
         8           Pt  tau(   8) = (   0.6666667   0.5773503   1.0017346  )
         9           Pt  tau(   9) = (   1.0000000   0.5773503   1.0017346  )
        10           Pt  tau(  10) = (   0.1666667   0.0962250   1.2739001  )
        11           Pt  tau(  11) = (   0.5000000   0.0962250   1.2739001  )
        12           Pt  tau(  12) = (   0.8333333   0.0962250   1.2739001  )
        13           Pt  tau(  13) = (   0.3333333   0.3849002   1.2739001  )
        14           Pt  tau(  14) = (   0.6666667   0.3849002   1.2739001  )
        15           Pt  tau(  15) = (   1.0000000   0.3849002   1.2739001  )
        16           Pt  tau(  16) = (   0.5000000   0.6735753   1.2739001  )
        17           Pt  tau(  17) = (   0.8333333   0.6735753   1.2739001  )
        18           Pt  tau(  18) = (   1.1666667   0.6735753   1.2739001  )
        19           Pt  tau(  19) = (   0.0001588   0.1915548   1.5406552  )
        20           Pt  tau(  20) = (   0.3331403   0.1915646   1.5407106  )
        21           Pt  tau(  21) = (   0.6666471   0.1918497   1.5412943  )
        22           Pt  tau(  22) = (   0.1666311   0.4811612   1.5421615  )
        23           Pt  tau(  23) = (   0.5024045   0.4823341   1.5474706  )
        24           Pt  tau(  24) = (   0.8308659   0.4823395   1.5475195  )
        25           Pt  tau(  25) = (   0.3334598   0.7687248   1.5420879  )
        26           Pt  tau(  26) = (   0.6666342   0.7660185   1.5473987  )
        27           Pt  tau(  27) = (   0.9998156   0.7687187   1.5421144  )
        28           Pt  tau(  28) = (  -0.0008585  -0.0010705   1.8146400  )
        29           Pt  tau(  29) = (   0.3340781  -0.0010836   1.8146585  )
        30           Pt  tau(  30) = (   0.6666202  -0.0019220   1.8153457  )
        31           Pt  tau(  31) = (   0.1666222   0.2879651   1.8150136  )
        32           Pt  tau(  32) = (   0.4987766   0.2865243   1.8131970  )
        33           Pt  tau(  33) = (   0.8345628   0.2865256   1.8131893  )
        34           Pt  tau(  34) = (   0.3325577   0.5758816   1.8178231  )
        35           Pt  tau(  35) = (   0.6666816   0.5778205   1.8541239  )
        36           Pt  tau(  36) = (   1.0006788   0.5758602   1.8179100  )
        37           C   tau(  37) = (   0.6657725   0.5321674   2.0883986  )
        38           C   tau(  38) = (   0.6669733   0.6560701   2.2212834  )
        39           C   tau(  39) = (   0.6667882   0.8317775   2.1884807  )
        40           O   tau(  40) = (   0.6638331   0.3941869   2.1259423  )
        41           H   tau(  41) = (   0.5642336   0.6233990   2.2923579  )
        42           H   tau(  42) = (   0.7707421   0.6232207   2.2907779  )
        43           H   tau(  43) = (   0.6672094   0.8947998   2.3009009  )
        44           H   tau(  44) = (   0.7710340   0.8690996   2.1226196  )
        45           H   tau(  45) = (   0.5620155   0.8690111   2.1245883  )

     number of k points=    13  Marzari-Vanderbilt smearing, width (Ry)=  0.0200
                       cart. coord. in units 2pi/alat
        k(    1) = (   0.0000000   0.0000000   0.0000000), wk =   0.0800000
        k(    2) = (   0.0000000   0.2309401   0.0000000), wk =   0.1600000
        k(    3) = (   0.0000000   0.4618802   0.0000000), wk =   0.1600000
        k(    4) = (   0.2000000  -0.1154701   0.0000000), wk =   0.1600000
        k(    5) = (   0.2000000   0.1154701   0.0000000), wk =   0.1600000
        k(    6) = (   0.2000000   0.3464102   0.0000000), wk =   0.1600000
        k(    7) = (   0.2000000  -0.5773503   0.0000000), wk =   0.1600000
        k(    8) = (   0.2000000  -0.3464102   0.0000000), wk =   0.1600000
        k(    9) = (   0.4000000  -0.2309401   0.0000000), wk =   0.1600000
        k(   10) = (   0.4000000  -0.0000000   0.0000000), wk =   0.1600000
        k(   11) = (   0.4000000   0.2309401   0.0000000), wk =   0.1600000
        k(   12) = (   0.4000000  -0.6928203   0.0000000), wk =   0.1600000
        k(   13) = (   0.4000000  -0.4618802   0.0000000), wk =   0.1600000

     Check: negative core charge=   -0.000002

     Initial potential from superposition of free atoms

     starting charge  382.99372, renormalised to  383.00000

     negative rho (up, down):  1.143E-02 0.000E+00

     %%%%%%%%%%%%%%%%%%%%%%%%%%%%%%%%%%%%%%%%%%%%%%%%%%%%%%%%%%%%%%%%%%%%%%%%
     %                                                                      %
     % You are using vdW-DF, which was implemented by the Thonhauser group. %
     % Please cite the following two papers that made this development      %
     % possible and the two reviews that describe the various versions:     %
     %                                                                      %
     %   T. Thonhauser et al., PRL 115, 136402 (2015).                      %
     %   T. Thonhauser et al., PRB 76, 125112 (2007).                       %
     %   K. Berland et al., Rep. Prog. Phys. 78, 066501 (2015).             %
     %   D.C. Langreth et al., J. Phys.: Condens. Matter 21, 084203 (2009). %
     %                                                                      %
     %                                                                      %
     % If you are calculating the stress with vdW-DF, please also cite:     %
     %                                                                      %
     %   R. Sabatini et al., J. Phys.: Condens. Matter 24, 424209 (2012).   %
     %                                                                      %
     %%%%%%%%%%%%%%%%%%%%%%%%%%%%%%%%%%%%%%%%%%%%%%%%%%%%%%%%%%%%%%%%%%%%%%%%

     Starting wfcs are  345 randomized atomic wfcs
     Checking if some PAW data can be deallocated...

     Self-consistent Calculation

     iteration #  1     ecut=    60.00 Ry     beta= 0.70
     Davidson diagonalization with overlap
     ethr =  1.00E-02,  avg # of iterations =  2.7

     Threshold (ethr) on eigenvalues was too large:
     Diagonalizing with lowered threshold

     Davidson diagonalization with overlap
     ethr =  8.82E-04,  avg # of iterations =  2.7

[...]

     total energy              =  -27859.60346365 Ry
     estimated scf accuracy    <       3.57774447 Ry

[...]

     iteration #  6     ecut=    60.00 Ry     beta= 0.70
     Davidson diagonalization with overlap
     c_bands:  1 eigenvalues not converged
     c_bands:  2 eigenvalues not converged
     c_bands:  1 eigenvalues not converged
     c_bands:  1 eigenvalues not converged
     ethr =  1.48E-05,  avg # of iterations = 15.5

[...]

     iteration # 10     ecut=    60.00 Ry     beta= 0.70
     Davidson diagonalization with overlap
     c_bands:  1 eigenvalues not converged
     c_bands:  2 eigenvalues not converged
     c_bands:  1 eigenvalues not converged
     c_bands:  1 eigenvalues not converged
     ethr =  1.62E-06,  avg # of iterations = 14.0

[...]

     total energy              =  -27859.89885854 Ry
     estimated scf accuracy    <       0.00000111 Ry

     iteration # 22     ecut=    60.00 Ry     beta= 0.70
     Davidson diagonalization with overlap
     ethr =  2.91E-10,  avg # of iterations =  1.7

[...]

     End of self-consistent calculation

          k = 0.0000 0.0000 0.0000 ( 92663 PWs)   bands (ev):

   -20.4221 -13.0634  -9.8250  -7.2262  -6.9626  -5.7085  -5.1335  -4.9017
    -4.7250  -4.6090  -4.6013  -4.5984  -4.5931  -4.5734  -4.5483  -4.5465
    -4.4706  -4.0474  -4.0389  -4.0313  -4.0132  -4.0123  -3.9841  -3.6327
    -3.5725  -3.5598  -3.5595  -3.5472  -3.5073  -3.4806  -3.3560  -3.3486
    -3.3420  -3.3290  -3.2860  -3.2759  -3.1552  -3.1206  -3.1162  -3.1141
    -3.1004  -3.0981  -3.0960  -3.0844  -3.0824  -3.0492  -3.0451  -3.0412
    -2.9779  -2.5576  -2.5015  -2.4941  -2.4753  -2.4605  -2.4357  -2.4125
    -2.4057  -2.3959  -2.3945  -2.3528  -2.2841  -2.2497  -2.2165  -2.1153
    -2.0635  -1.7743  -1.6850  -1.6803  -1.6589  -1.6541  -1.6387  -1.6001
    -1.5244  -1.5145  -1.5011  -1.4992  -1.4777  -1.4708  -1.4639  -1.4477
    -1.4437  -1.4317  -1.4218  -1.4179  -1.3954  -1.3910  -1.3714  -1.2845
    -1.2826  -1.2709  -1.2541  -1.2524  -1.1778  -1.1232  -1.1007  -1.1004
    -1.0642  -1.0554  -1.0489  -1.0107  -1.0072  -0.9710  -0.9672  -0.8959
    -0.8934  -0.8336  -0.8333  -0.7946  -0.7934  -0.7437  -0.7332  -0.7147
    -0.6835  -0.6559  -0.6317  -0.6193  -0.5948  -0.4480  -0.2728  -0.2383
    -0.1906  -0.1606  -0.1415  -0.1382  -0.1286  -0.0889  -0.0759  -0.0697
    -0.0339  -0.0261   0.0163   0.0328   0.0944   0.1442   0.1613   0.1741
     0.2061   0.2367   0.2404   0.3146   0.3412   0.3496   0.3570   0.3641
     0.5317   0.5358   0.5570   0.5883   0.5908   0.6019   0.6302   0.6581
     0.6651   0.8455   0.8471   0.8530   0.8744   0.8815   0.9396   0.9979
     1.0079   1.0179   1.0290   1.0349   1.0488   1.0530   1.0667   1.0708
     1.0830   1.0948   1.1569   1.1583   1.1767   1.1852   1.1978   1.2035
     1.2230   1.2558   1.2796   1.2904   1.2906   1.3013   1.3310   1.3396
     1.3424   1.3516   1.4147   1.4167   1.4335   1.4445   1.4485   1.4650
     1.4701   1.5392   1.5406   1.5437   1.5656   1.5713   1.6158   1.7404
     1.7428   1.8372   1.8417   1.8768   1.8837   1.8848   1.8994   2.2546
     2.6980   2.7158   2.7589   2.7935   2.7976   2.8598   4.1199   4.6855
     5.0604   5.0611   5.1026   5.1334   5.1679   5.7248   5.9742   6.5027
     6.6417   6.6477   6.6747   6.6813   6.6989   6.7220

[...]

          k = 0.4000-0.4619 0.0000 ( 92596 PWs)   bands (ev):

   -20.4221 -13.0635  -9.8241  -7.1956  -6.0457  -6.0123  -5.4261  -5.1416
    -4.9619  -4.8000  -4.7634  -4.5784  -4.2707  -4.2243  -4.1274  -4.0884
    -3.9847  -3.9757  -3.8789  -3.8651  -3.7750  -3.7629  -3.7462  -3.7233
    -3.7037  -3.6927  -3.6728  -3.5616  -3.5471  -3.5424  -3.5212  -3.4843
    -3.4609  -3.3861  -3.3009  -3.2852  -3.2373  -3.1547  -3.1417  -3.1289
    -3.1134  -3.0894  -3.0443  -2.9938  -2.9713  -2.9035  -2.8499  -2.7073
    -2.6962  -2.6549  -2.6032  -2.5600  -2.5132  -2.4868  -2.4633  -2.3771
    -2.3394  -2.3109  -2.2918  -2.2683  -2.2273  -2.2201  -2.1962  -2.1567
    -2.0994  -2.0768  -2.0661  -2.0485  -2.0366  -2.0277  -2.0060  -1.9866
    -1.9377  -1.8437  -1.8195  -1.7884  -1.7626  -1.6691  -1.6622  -1.6298
    -1.6125  -1.5877  -1.5594  -1.5375  -1.5152  -1.4339  -1.4269  -1.4134
    -1.3820  -1.3692  -1.3328  -1.2900  -1.2432  -1.2146  -1.2077  -1.1807
    -1.1643  -1.0835  -1.0322  -1.0117  -0.9945  -0.9899  -0.9604  -0.9451
    -0.9273  -0.8996  -0.8925  -0.8705  -0.8500  -0.8278  -0.8201  -0.7932
    -0.7795  -0.7727  -0.7544  -0.7474  -0.7232  -0.6932  -0.6681  -0.6179
    -0.4839  -0.4351  -0.3679  -0.3608  -0.2915  -0.2767  -0.2539  -0.2219
    -0.2011  -0.1779  -0.1472  -0.1202  -0.1059  -0.0474  -0.0261  -0.0104
     0.0294   0.0360   0.1112   0.1321   0.1526   0.1984   0.2927   0.3291
     0.3667   0.4034   0.4213   0.4444   0.4845   0.5015   0.5394   0.5544
     0.5678   0.6049   0.6217   0.6516   0.7080   0.7191   0.7500   0.7823
     0.7988   0.8158   0.8390   0.8623   0.9459   0.9729   1.0635   1.0902
     1.1565   1.2218   1.2457   1.2631   1.3212   1.3776   1.3817   1.4205
     1.4855   1.5260   1.5577   1.5745   1.5987   1.6087   1.6257   1.6638
     1.6729   1.7530   1.7602   1.7705   1.7958   1.8134   1.8232   1.8466
     1.8893   1.9798   2.0051   2.0292   2.0382   2.0493   2.1017   2.1506
     2.2188   2.3439   2.9482   3.1756   3.1816   3.3588   3.4601   3.5387
     3.5552   3.5944   3.8392   4.1466   4.1816   4.3440   4.3954   4.6674
     4.7308   4.7716   4.8054   4.9128   5.0547   5.1494   5.2303   5.4789
     5.5980   5.6776   5.8388   6.2089   6.2831   6.3111

     the Fermi energy is     1.8033 ev

!    total energy              =  -27859.89885809 Ry

     total all-electron energy =  -1327028.803444 Ry
     estimated scf accuracy    <       0.00000020 Ry
     smearing contrib. (-TS)   =       0.00227540 Ry
     internal energy E=F+TS    =  -27859.90113349 Ry

     The total energy is F=E-TS. E is the sum of the following terms:
     one-electron contribution =  -29206.05641199 Ry
     hartree contribution      =   14909.55335094 Ry
     xc contribution           =    -915.93043614 Ry
     ewald contribution        =   12856.27701716 Ry
     one-center paw contrib.   =  -25503.74465345 Ry

     convergence has been achieved in  22 iterations

[...]

     Forces acting on atoms (cartesian axes, Ry/au):

     atom    1 type  1   force =     0.00079015    0.00092479   -0.00365362
     atom    2 type  1   force =    -0.00082795    0.00092499   -0.00364252
     atom    3 type  1   force =    -0.00000407   -0.00007683   -0.00319159
     atom    4 type  1   force =    -0.00001657    0.00018257   -0.00724963
     atom    5 type  1   force =    -0.00036007    0.00018639   -0.00341215
     atom    6 type  1   force =     0.00033381    0.00017935   -0.00339841
     atom    7 type  1   force =    -0.00066715   -0.00015792   -0.00336197
     atom    8 type  1   force =    -0.00002635   -0.00009466   -0.00293492
     atom    9 type  1   force =     0.00062795   -0.00017328   -0.00336705
     atom   10 type  1   force =     0.00001451   -0.00017639   -0.00013697
     atom   11 type  1   force =     0.00000789   -0.00040251    0.00057408
     atom   12 type  1   force =    -0.00009456   -0.00040175    0.00055105
     atom   13 type  1   force =    -0.00000076    0.00078708   -0.00056274
     atom   14 type  1   force =    -0.00002921    0.00253806    0.00909756
     atom   15 type  1   force =    -0.00006110    0.00080977   -0.00056999
     atom   16 type  1   force =     0.00191410   -0.00180503    0.01019695
     atom   17 type  1   force =    -0.00197167   -0.00181151    0.01025539
     atom   18 type  1   force =    -0.00004958   -0.00102470    0.00237159
     atom   19 type  1   force =     0.00003562    0.00002491    0.00023472
     atom   20 type  1   force =    -0.00004075    0.00001475    0.00019065
     atom   21 type  1   force =    -0.00001507   -0.00004496    0.00011050
     atom   22 type  1   force =    -0.00001668   -0.00027051   -0.00016472
     atom   23 type  1   force =    -0.00015334   -0.00017651    0.00019176
     atom   24 type  1   force =     0.00013351   -0.00017092    0.00015520
     atom   25 type  1   force =    -0.00013329    0.00002735    0.00013958
     atom   26 type  1   force =    -0.00001209    0.00017990    0.00000640
     atom   27 type  1   force =     0.00010272    0.00003441    0.00014872
     atom   28 type  1   force =     0.00028088    0.00012894    0.00001874
     atom   29 type  1   force =    -0.00029103    0.00012015    0.00006047
     atom   30 type  1   force =    -0.00000464    0.00024760    0.00003194
     atom   31 type  1   force =    -0.00001362   -0.00026129   -0.00004083
     atom   32 type  1   force =     0.00019485    0.00016310    0.00009241
     atom   33 type  1   force =    -0.00022187    0.00013881    0.00005339
     atom   34 type  1   force =     0.00012186   -0.00009925   -0.00012468
     atom   35 type  1   force =    -0.00001243   -0.00081671    0.00044021
     atom   36 type  1   force =    -0.00012493   -0.00007149   -0.00011633
     atom   37 type  2   force =    -0.00060919   -0.00090310    0.00079786
     atom   38 type  2   force =     0.00039997   -0.00004705   -0.00038633
     atom   39 type  2   force =     0.00447134    0.00042361    0.00469853
     atom   40 type  3   force =     0.00009824    0.00008807    0.00021782
     atom   41 type  4   force =     0.00038367    0.00008182    0.00026540
     atom   42 type  4   force =    -0.00021587    0.00010814    0.00018810
     atom   43 type  4   force =     0.00084431   -0.00028790    0.00001634
     atom   44 type  4   force =    -0.00074080   -0.00015201   -0.00043157
     atom   45 type  4   force =    -0.00404076    0.00111173   -0.00435934

     Total force =     0.009207     Total SCF correction =     0.000609

[...]

     negative rho (up, down):  1.288E-02 0.000E+00

     negative rho (up, down):  1.288E-02 0.000E+00
 BEEFens 2000 ensemble energies
             -0.613729098624838E+02
             -0.364594728390577E+01
             -0.159698402721665E+02
              0.434354089534417E+02
             -0.223493470494768E+02
             -0.207030691807588E+02
             -0.357498371792301E+02
             -0.875490338185982E+02
             -0.468825378264104E+02
             -0.476834806775558E+02
             -0.373400600230929E+02
              0.235847064453464E+01
              0.410237145825531E+01
              0.756715110665064E+01
              0.269806617493543E+01
              0.480109688227257E+02
             -0.210885964757784E+02
             -0.231178313875240E+02
              0.195390505320468E+02
             -0.113600341418040E+03
              0.542657367592396E+02
             -0.291980190199638E+02
             -0.341210493430489E+01
             -0.115146841723596E+02
             -0.880279214066093E+01
             -0.467263417891996E+01
              0.892286116050785E+02
             -0.189993291328813E+02
             -0.908204961029617E+01
             -0.524530432186505E+02
              0.822824513601431E+02
             -0.187641988816735E+02
             -0.379385009629059E+02
              0.251189024702813E+02
             -0.288182466479441E+01
              0.167205418007813E+02
             -0.483702421788468E+01
              0.108089192114389E+02
              0.292477679468480E+02
             -0.104343564587162E+03
              0.564485475077876E+02
              0.143795237702840E+02
             -0.186631377807134E+01
             -0.364719863695250E+02
              0.124502580853470E+02
             -0.149050515776156E+02
              0.403857274255685E+02
              0.368621691217434E+02
             -0.310145122643717E+02
             -0.278457473303580E+02
             -0.331757578918715E+02
             -0.356214596037151E+02
              0.138729600504974E+02
             -0.496478749979683E+02
              0.117445100654083E+02
              0.629787503898878E+02
              0.643681358678865E+02
              0.359443155955436E+02
              0.155796142018697E+02
              0.274182152067247E+02
[...]
             -0.714430366044413E+02
             -0.814499702345415E+00
             -0.246760738428787E+01
             -0.894219006816809E+01
             -0.178221359816700E+01
             -0.659939952405174E+02
             -0.211569677885409E+02
              0.553161489378638E+01
              0.915388951721948E+01
              0.474415009628580E+02
             -0.402384165031325E+02
              0.662849779047224E+02
             -0.429503796563397E+02
              0.213445902747225E+02
              0.355001043964363E+02

 BEEF-vdW xc energy contributions
           1 :   -790.603485754589
           2 :    725.664395918328
           3 :   -613.507016035492
           4 :    481.859532969868
           5 :   -358.599594671403
           6 :    263.625424618909
           7 :   -204.473758759512
           8 :    176.421908463857
           9 :   -166.616185403046
          10 :    160.296537644542
          11 :   -146.595103689020
          12 :    121.740980766750
          13 :   -88.8583570967249
          14 :    55.0167648263867
          15 :   -27.2347830636730
          16 :    9.23093311393302
          17 :  -0.162866073558916
          18 :   -4.39896175922809
          19 :    9.97017530500875
          20 :   -20.4402913622321
          21 :    36.3959354483127
          22 :   -55.1416860888778
          23 :    72.2381198987554
          24 :   -83.7170912570821
          25 :    87.8880424290530
          26 :   -85.9410528519751
          27 :    81.1679703847004
          28 :   -77.2717080001493
          29 :    76.6113450373767
          30 :   -79.2140370528172
          31 :   -86.8467044597481
          32 :   -66.4236507859239

     Writing output data file ./pwscf.save/

     General routines

     Parallel routines

   This run was terminated on:  21: 1:53  20May2022

   JOB DONE.