     Program PWSCF v.6.7MaX starts on 20May2022 at 16:44:13

     Reading input from ch3ch2oh-ensemble.in
Warning: card &CELL ignored
Warning: card / ignored

     Current dimensions of program PWSCF are:
     Max number of different atomic species (ntypx) = 10
     Max number of k-points (npk) =  40000
     Max angular momentum in pseudopotentials (lmaxx) =  3
     file Pt.pbe-n-kjpaw_psl.1.0.0.UPF: wavefunction(s)  6S 5D renormalized
     file C.pbe-n-kjpaw_psl.1.0.0.UPF: wavefunction(s)  2S 2P renormalized
     file O.pbe-nl-kjpaw_psl.1.0.0.UPF: wavefunction(s)  2S 2P renormalized
     file H.pbe-kjpaw_psl.1.0.0.UPF: wavefunction(s)  1S renormalized

     IMPORTANT: XC functional enforced from input :
     Exchange-correlation= BEEF-VDW
                           (   1   4  43  14   2   0   0)
     Any further DFT definition will be discarded
     Please, verify this is what you really want

     Subspace diagonalization in iterative solution of the eigenvalue problem:
     a serial algorithm will be used

     bravais-lattice index     =            0
     lattice parameter (alat)  =      16.0349  a.u.
     unit-cell volume          =   13139.3325 (a.u.)^3
     number of atoms/cell      =           45
     number of atomic types    =            4
     number of electrons       =       380.00
     number of Kohn-Sham states=          228
     kinetic-energy cutoff     =      60.0000  Ry
     charge density cutoff     =     240.0000  Ry
     scf convergence threshold =      1.0E-06
     mixing beta               =       0.7000
     number of iterations used =            8  local-TF  mixing
     Exchange-correlation= BEEF-VDW
                           (   1   4  43  14   2   0   0)

     celldm(1)=  16.034858  celldm(2)=   0.000000  celldm(3)=   0.000000
     celldm(4)=   0.000000  celldm(5)=   0.000000  celldm(6)=   0.000000

     crystal axes: (cart. coord. in units of alat)
               a(1) = (   1.000000   0.000000   0.000000 )
               a(2) = (   0.500000   0.866025   0.000000 )
               a(3) = (   0.000000   0.000000   3.679996 )

     reciprocal axes: (cart. coord. in units 2 pi/alat)
               b(1) = (  1.000000 -0.577350  0.000000 )
               b(2) = (  0.000000  1.154701  0.000000 )
               b(3) = (  0.000000  0.000000  0.271739 )

     PseudoPot. # 1 for Pt read from file:
     /users/bkreitz1/quantum-espresso/potentials/Pt.pbe-n-kjpaw_psl.1.0.0.UPF
     MD5 check sum: 04dc8a03c51ece93fc7b5889c2958091
     Pseudo is Projector augmented-wave + core cor, Zval = 10.0
     Generated using 'atomic' code by A. Dal Corso  v.6.7MaX
     Shape of augmentation charge: PSQ
     Using radial grid of 1277 points,  6 beta functions with:
                l(1) =   0
                l(2) =   0
                l(3) =   1
                l(4) =   1
                l(5) =   2
                l(6) =   2
     Q(r) pseudized with 0 coefficients

     PseudoPot. # 2 for C  read from file:
     /users/bkreitz1/quantum-espresso/potentials/C.pbe-n-kjpaw_psl.1.0.0.UPF
     MD5 check sum: a169b0ebad56f5ec0d79c4633f80bf22
     Pseudo is Projector augmented-wave + core cor, Zval =  4.0
     Generated using 'atomic' code by A. Dal Corso  v.6.7MaX
     Shape of augmentation charge: PSQ
     Using radial grid of 1073 points,  4 beta functions with:
                l(1) =   0
                l(2) =   0
                l(3) =   1
                l(4) =   1
     Q(r) pseudized with 0 coefficients

     PseudoPot. # 3 for O  read from file:
     /users/bkreitz1/quantum-espresso/potentials/O.pbe-nl-kjpaw_psl.1.0.0.UPF
     MD5 check sum: eef08af8b58d9ec80f8fdb78829eb7cf
     Pseudo is Projector augmented-wave + core cor, Zval =  6.0
     Generated using 'atomic' code by A. Dal Corso  v.6.7MaX
     Shape of augmentation charge: PSQ
     Using radial grid of 1095 points,  4 beta functions with:
                l(1) =   0
                l(2) =   0
                l(3) =   1
                l(4) =   1
     Q(r) pseudized with 0 coefficients

     PseudoPot. # 4 for H  read from file:
     /users/bkreitz1/quantum-espresso/potentials/H.pbe-kjpaw_psl.1.0.0.UPF
     MD5 check sum: ae98473e6dc62675f0d0baffdab24f65
     Pseudo is Projector augmented-wave, Zval =  1.0
     Generated using 'atomic' code by A. Dal Corso  v.6.7MaX
     Shape of augmentation charge: PSQ
     Using radial grid of  929 points,  2 beta functions with:
                l(1) =   0
                l(2) =   0
     Q(r) pseudized with 0 coefficients

     atomic species   valence    mass     pseudopotential
        Pt            10.00   195.08400     Pt( 1.00)
        C              4.00    12.01100     C ( 1.00)
        O              6.00    15.99900     O ( 1.00)
        H              1.00     1.00800     H ( 1.00)

     No symmetry found

   Cartesian axes

     site n.     atom                  positions (alat units)
         1           Pt  tau(   1) = (   0.0000000   0.0000000   1.0017346  )
         2           Pt  tau(   2) = (   0.3333333   0.0000000   1.0017346  )
         3           Pt  tau(   3) = (   0.6666667   0.0000000   1.0017346  )
         4           Pt  tau(   4) = (   0.1666667   0.2886751   1.0017346  )
         5           Pt  tau(   5) = (   0.5000000   0.2886751   1.0017346  )
         6           Pt  tau(   6) = (   0.8333333   0.2886751   1.0017346  )
         7           Pt  tau(   7) = (   0.3333333   0.5773503   1.0017346  )
         8           Pt  tau(   8) = (   0.6666667   0.5773503   1.0017346  )
         9           Pt  tau(   9) = (   1.0000000   0.5773503   1.0017346  )
        10           Pt  tau(  10) = (   0.1666667   0.0962250   1.2739001  )
        11           Pt  tau(  11) = (   0.5000000   0.0962250   1.2739001  )
        12           Pt  tau(  12) = (   0.8333333   0.0962250   1.2739001  )
        13           Pt  tau(  13) = (   0.3333333   0.3849002   1.2739001  )
        14           Pt  tau(  14) = (   0.6666667   0.3849002   1.2739001  )
        15           Pt  tau(  15) = (   1.0000000   0.3849002   1.2739001  )
        16           Pt  tau(  16) = (   0.5000000   0.6735753   1.2739001  )
        17           Pt  tau(  17) = (   0.8333333   0.6735753   1.2739001  )
        18           Pt  tau(  18) = (   1.1666667   0.6735753   1.2739001  )
        19           Pt  tau(  19) = (  -0.0000196   0.1922815   1.5429937  )
        20           Pt  tau(  20) = (   0.3333654   0.1923855   1.5430233  )
        21           Pt  tau(  21) = (   0.6666640   0.1923971   1.5430036  )
        22           Pt  tau(  22) = (   0.1666252   0.4811278   1.5430245  )
        23           Pt  tau(  23) = (   0.5000189   0.4810611   1.5430255  )
        24           Pt  tau(  24) = (   0.8333279   0.4811204   1.5428502  )
        25           Pt  tau(  25) = (   0.3334026   0.7698028   1.5428871  )
        26           Pt  tau(  26) = (   0.6665819   0.7698139   1.5429378  )
        27           Pt  tau(  27) = (   0.9999750   0.7697132   1.5430070  )
        28           Pt  tau(  28) = (   0.0000620  -0.0001738   1.8175094  )
        29           Pt  tau(  29) = (   0.3334526  -0.0002162   1.8170489  )
        30           Pt  tau(  30) = (   0.6668454  -0.0003207   1.8168870  )
        31           Pt  tau(  31) = (   0.1666435   0.2885752   1.8169923  )
        32           Pt  tau(  32) = (   0.5001228   0.2885099   1.8169772  )
        33           Pt  tau(  33) = (   0.8336517   0.2886474   1.8169304  )
        34           Pt  tau(  34) = (   0.3334148   0.5773908   1.8169327  )
        35           Pt  tau(  35) = (   0.6669230   0.5774592   1.8169472  )
        36           Pt  tau(  36) = (   1.0000585   0.5772680   1.8173175  )
        37           C   tau(  37) = (   0.5627550   0.2893184   2.5459777  )
        38           C   tau(  38) = (   0.3937930   0.2887432   2.6047687  )
        39           O   tau(  39) = (   0.2915471   0.2891322   2.4691343  )
        40           H   tau(  40) = (   0.6438862   0.2890870   2.6459201  )
        41           H   tau(  41) = (   0.5856154   0.1853100   2.4738498  )
        42           H   tau(  42) = (   0.5851219   0.3941336   2.4748509  )
        43           H   tau(  43) = (   0.3712658   0.3930879   2.6779531  )
        44           H   tau(  44) = (   0.3716323   0.1837385   2.6770986  )
        45           H   tau(  45) = (   0.1836145   0.2887227   2.5061928  )

     number of k points=    13  Marzari-Vanderbilt smearing, width (Ry)=  0.0200
                       cart. coord. in units 2pi/alat
        k(    1) = (   0.0000000   0.0000000   0.0000000), wk =   0.0800000
        k(    2) = (   0.0000000   0.2309401   0.0000000), wk =   0.1600000
        k(    3) = (   0.0000000   0.4618802   0.0000000), wk =   0.1600000
        k(    4) = (   0.2000000  -0.1154701   0.0000000), wk =   0.1600000
        k(    5) = (   0.2000000   0.1154701   0.0000000), wk =   0.1600000
        k(    6) = (   0.2000000   0.3464102   0.0000000), wk =   0.1600000
        k(    7) = (   0.2000000  -0.5773503   0.0000000), wk =   0.1600000
        k(    8) = (   0.2000000  -0.3464102   0.0000000), wk =   0.1600000
        k(    9) = (   0.4000000  -0.2309401   0.0000000), wk =   0.1600000
        k(   10) = (   0.4000000  -0.0000000   0.0000000), wk =   0.1600000
        k(   11) = (   0.4000000   0.2309401   0.0000000), wk =   0.1600000
        k(   12) = (   0.4000000  -0.6928203   0.0000000), wk =   0.1600000
        k(   13) = (   0.4000000  -0.4618802   0.0000000), wk =   0.1600000

     Check: negative core charge=   -0.000002

     Initial potential from superposition of free atoms

     starting charge  379.99375, renormalised to  380.00000

     negative rho (up, down):  1.038E-02 0.000E+00

     %%%%%%%%%%%%%%%%%%%%%%%%%%%%%%%%%%%%%%%%%%%%%%%%%%%%%%%%%%%%%%%%%%%%%%%%
     %                                                                      %
     % You are using vdW-DF, which was implemented by the Thonhauser group. %
     % Please cite the following two papers that made this development      %
     % possible and the two reviews that describe the various versions:     %
     %                                                                      %
     %   T. Thonhauser et al., PRL 115, 136402 (2015).                      %
     %   T. Thonhauser et al., PRB 76, 125112 (2007).                       %
     %   K. Berland et al., Rep. Prog. Phys. 78, 066501 (2015).             %
     %   D.C. Langreth et al., J. Phys.: Condens. Matter 21, 084203 (2009). %
     %                                                                      %
     %                                                                      %
     % If you are calculating the stress with vdW-DF, please also cite:     %
     %                                                                      %
     %   R. Sabatini et al., J. Phys.: Condens. Matter 24, 424209 (2012).   %
     %                                                                      %
     %%%%%%%%%%%%%%%%%%%%%%%%%%%%%%%%%%%%%%%%%%%%%%%%%%%%%%%%%%%%%%%%%%%%%%%%

     Starting wfcs are  342 randomized atomic wfcs
     Checking if some PAW data can be deallocated...

     Self-consistent Calculation

     iteration #  1     ecut=    60.00 Ry     beta= 0.70
     Davidson diagonalization with overlap
     ethr =  1.00E-02,  avg # of iterations =  3.1

     Threshold (ethr) on eigenvalues was too large:
     Diagonalizing with lowered threshold

     Davidson diagonalization with overlap
     ethr =  6.42E-04,  avg # of iterations =  3.2

[...]

     total energy              =  -27841.94213160 Ry
     estimated scf accuracy    <       2.63183317 Ry

[...]

     iteration #  4     ecut=    60.00 Ry     beta= 0.70
     Davidson diagonalization with overlap
     c_bands:  1 eigenvalues not converged
     c_bands:  1 eigenvalues not converged
     c_bands:  1 eigenvalues not converged
     ethr =  8.72E-05,  avg # of iterations = 14.5

[...]

     iteration # 22     ecut=    60.00 Ry     beta= 0.70
     Davidson diagonalization with overlap
     c_bands:  1 eigenvalues not converged
     ethr =  6.25E-09,  avg # of iterations =  3.4

[...]

     total energy              =  -27842.10310830 Ry
     estimated scf accuracy    <       0.00000164 Ry

     iteration # 25     ecut=    60.00 Ry     beta= 0.70
     Davidson diagonalization with overlap
     ethr =  4.33E-10,  avg # of iterations =  4.2

[...]

     End of self-consistent calculation

          k = 0.0000 0.0000 0.0000 (103189 PWs)   bands (ev):

   -19.2457 -12.4557  -8.9209  -7.9129  -6.6063  -6.4766  -5.5298  -5.4914
    -5.4906  -5.4904  -5.4900  -5.4898  -5.4894  -5.4794  -5.1520  -4.9352
    -4.9343  -4.9341  -4.9339  -4.9338  -4.9333  -4.4606  -4.4599  -4.4597
    -4.4595  -4.4592  -4.4590  -4.2448  -4.2446  -4.2442  -4.2440  -4.2438
    -4.2438  -4.0148  -4.0145  -4.0080  -4.0072  -4.0003  -3.9997  -3.9995
    -3.9990  -3.9987  -3.9983  -3.9760  -3.9745  -3.5386  -3.4025  -3.4024
    -3.3677  -3.3670  -3.3137  -3.3128  -3.3126  -3.3121  -3.3121  -3.3119
    -3.1735  -3.1731  -3.1636  -3.0739  -3.0723  -2.6592  -2.5680  -2.5664
    -2.5661  -2.5659  -2.5655  -2.5653  -2.5044  -2.4092  -2.4091  -2.3805
    -2.3804  -2.3665  -2.3659  -2.3510  -2.3425  -2.3423  -2.3420  -2.3418
    -2.3416  -2.3413  -2.3064  -2.3063  -2.1527  -2.1521  -2.1519  -2.1517
    -2.1512  -2.1502  -1.9918  -1.9906  -1.9902  -1.9899  -1.9896  -1.9889
    -1.9002  -1.9001  -1.8014  -1.8011  -1.7952  -1.7388  -1.7387  -1.7246
    -1.7238  -1.6920  -1.6918  -1.6734  -1.6718  -1.5236  -1.5228  -1.5223
    -1.5216  -1.5212  -1.5206  -1.5169  -1.0309  -1.0303  -1.0298  -1.0297
    -1.0292  -1.0289  -0.9560  -0.9555  -0.9544  -0.9539  -0.9537  -0.9535
    -0.8896  -0.8881  -0.7096  -0.7084  -0.7079  -0.7072  -0.7070  -0.7066
    -0.5688  -0.5681  -0.5637  -0.5625  -0.5569  -0.5569  -0.2980  -0.2977
    -0.2974  -0.2971  -0.2969  -0.2964  -0.2203  -0.2188  -0.0900  -0.0391
    -0.0387  -0.0386  -0.0381  -0.0374  -0.0371   0.1328   0.1330   0.1342
     0.1344   0.1345   0.1350   0.1790   0.1792   0.1797   0.1808   0.1810
     0.1811   0.3119   0.3122   0.3313   0.3316   0.3319   0.3327   0.3328
     0.3329   0.4356   0.4358   0.4373   0.4378   0.4393   0.4399   0.4447
     0.4451   0.5389   0.5393   0.5405   0.5408   0.5415   0.5417   0.6432
     0.6435   0.6490   0.6492   0.6514   0.6515   0.7239   0.8668   0.8679
     0.9740   0.9741   0.9750   0.9751   0.9753   0.9756   1.8148   1.8678
     1.8694   1.8695   1.8711   1.8718   1.8726   4.1964   4.1971   4.1992
     4.1992   4.2010   4.2013   4.7984   5.5426   5.7366   5.7376   5.7908
     5.7919   5.7927   5.8215   6.0965

[...]

          k = 0.4000-0.4619 0.0000 (103108 PWs)   bands (ev):

   -19.2457 -12.4559  -8.9202  -6.9448  -6.9444  -6.4756  -6.3367  -5.6886
    -5.6878  -5.1736  -5.1724  -5.1524  -5.0388  -5.0037  -4.8950  -4.8946
    -4.7869  -4.7865  -4.6644  -4.6640  -4.6601  -4.6212  -4.6208  -4.5928
    -4.5912  -4.4654  -4.4543  -4.4539  -4.4101  -4.4097  -4.3142  -4.2194
    -4.1990  -4.1349  -4.0387  -4.0385  -4.0257  -4.0255  -4.0053  -3.8951
    -3.8948  -3.7994  -3.7988  -3.6245  -3.6145  -3.5584  -3.5384  -3.4578
    -3.4576  -3.4060  -3.4055  -3.2978  -3.2450  -3.1996  -3.1989  -3.1784
    -3.1672  -3.1310  -3.1304  -3.1011  -2.9947  -2.9945  -2.9623  -2.9618
    -2.9582  -2.9561  -2.9559  -2.8816  -2.8809  -2.7502  -2.7285  -2.6769
    -2.6763  -2.6591  -2.5625  -2.5254  -2.5200  -2.5195  -2.4717  -2.4334
    -2.4331  -2.3442  -2.3197  -2.3185  -2.3124  -2.2809  -2.2468  -2.2009
    -2.1994  -2.1518  -2.0968  -2.0962  -2.0792  -2.0783  -1.9659  -1.9187
    -1.9182  -1.8754  -1.8750  -1.8303  -1.8298  -1.8145  -1.8139  -1.7977
    -1.7839  -1.7834  -1.7338  -1.7332  -1.7019  -1.6842  -1.6840  -1.6798
    -1.6796  -1.6630  -1.6332  -1.5629  -1.5624  -1.5607  -1.3537  -1.3465
    -1.2542  -1.2534  -1.1433  -1.1338  -1.1319  -1.1066  -1.0459  -1.0435
    -1.0432  -1.0185  -1.0176  -0.9331  -0.8978  -0.8972  -0.8289  -0.8095
    -0.8083  -0.7460  -0.7441  -0.6942  -0.5541  -0.4876  -0.4869  -0.4684
    -0.4680  -0.3740  -0.3660  -0.3652  -0.3430  -0.3313  -0.3299  -0.2886
    -0.2881  -0.1693  -0.1683  -0.1578  -0.0998  -0.0988  -0.0902  -0.0806
    -0.0691  -0.0562  -0.0557   0.1065   0.1564   0.1808   0.2643   0.2652
     0.3467   0.3473   0.4343   0.4736   0.4819   0.4821   0.5872   0.5876
     0.6598   0.6906   0.7009   0.7110   0.7114   0.7547   0.7555   0.7936
     0.8680   0.8684   0.8931   0.9214   0.9220   0.9260   0.9270   0.9855
     1.1274   1.1332   1.1336   1.1343   1.1345   1.2108   1.2742   1.3253
     1.4659   2.2856   2.2856   2.5233   2.5271   2.5557   2.6897   2.6900
     2.7000   3.1323   3.2987   3.2990   3.7596   3.7876   3.7877   3.9039
     3.9047   4.1169   4.2018   4.2882   4.2962   4.6391   4.7420   4.7422
     5.2190   5.3106   5.3808   5.6767

     the Fermi energy is     0.8993 ev

!    total energy              =  -27842.10310873 Ry

     total all-electron energy =  -1326953.243593 Ry
     estimated scf accuracy    <       0.00000083 Ry
     smearing contrib. (-TS)   =       0.00255077 Ry
     internal energy E=F+TS    =  -27842.10565950 Ry

     The total energy is F=E-TS. E is the sum of the following terms:
     one-electron contribution =  -34084.22203517 Ry
     hartree contribution      =   17335.69570937 Ry
     xc contribution           =    -911.90129966 Ry
     ewald contribution        =   15315.49096975 Ry
     one-center paw contrib.   =  -25497.16900379 Ry

     convergence has been achieved in  25 iterations

[...]

     Forces acting on atoms (cartesian axes, Ry/au):

     atom    1 type  1   force =     0.00003370    0.00004284   -0.00349702
     atom    2 type  1   force =    -0.00003032    0.00001908   -0.00339434
     atom    3 type  1   force =    -0.00001309   -0.00000532   -0.00346203
     atom    4 type  1   force =     0.00000309    0.00000348   -0.00335340
     atom    5 type  1   force =    -0.00003553    0.00000667   -0.00339698
     atom    6 type  1   force =     0.00003814   -0.00001088   -0.00342778
     atom    7 type  1   force =    -0.00003391   -0.00003834   -0.00344361
     atom    8 type  1   force =    -0.00000859    0.00000727   -0.00343120
     atom    9 type  1   force =     0.00002993   -0.00002090   -0.00340653
     atom   10 type  1   force =     0.00010346    0.00013649    0.00408974
     atom   11 type  1   force =    -0.00012330    0.00002418    0.00402903
     atom   12 type  1   force =    -0.00003344    0.00012768    0.00403527
     atom   13 type  1   force =    -0.00007767   -0.00009092    0.00410666
     atom   14 type  1   force =    -0.00012019   -0.00005363    0.00397671
     atom   15 type  1   force =     0.00012594   -0.00005842    0.00408414
     atom   16 type  1   force =     0.00003279   -0.00019719    0.00400573
     atom   17 type  1   force =     0.00002119    0.00003819    0.00395578
     atom   18 type  1   force =    -0.00014253   -0.00015982    0.00403144
     atom   19 type  1   force =     0.00024001    0.00036595   -0.00023192
     atom   20 type  1   force =    -0.00019268    0.00010054   -0.00040982
     atom   21 type  1   force =     0.00005727    0.00011333   -0.00033122
     atom   22 type  1   force =     0.00001933   -0.00026970   -0.00037683
     atom   23 type  1   force =    -0.00002492   -0.00000887   -0.00036776
     atom   24 type  1   force =     0.00017202   -0.00008245    0.00008552
     atom   25 type  1   force =    -0.00002488   -0.00017490   -0.00002234
     atom   26 type  1   force =     0.00023992   -0.00003519   -0.00003481
     atom   27 type  1   force =    -0.00005558   -0.00004576   -0.00037308
     atom   28 type  1   force =     0.00015707    0.00016700   -0.00080737
     atom   29 type  1   force =    -0.00011745    0.00034360    0.00002174
     atom   30 type  1   force =    -0.00010774    0.00053407    0.00032284
     atom   31 type  1   force =     0.00036022   -0.00005787    0.00008828
     atom   32 type  1   force =     0.00002071    0.00019104    0.00009953
     atom   33 type  1   force =    -0.00051045   -0.00005542    0.00008113
     atom   34 type  1   force =     0.00014961   -0.00046834    0.00018067
     atom   35 type  1   force =    -0.00027794   -0.00053987    0.00008590
     atom   36 type  1   force =     0.00001540   -0.00013936   -0.00053659
     atom   37 type  2   force =    -0.00183072    0.00025458    0.00070028
     atom   38 type  2   force =     0.00147355    0.00037733   -0.00120966
     atom   39 type  3   force =    -0.00673047   -0.00005378    0.00361771
     atom   40 type  4   force =     0.00073309   -0.00009846   -0.00070159
     atom   41 type  4   force =     0.00046307    0.00005562   -0.00030091
     atom   42 type  4   force =     0.00051021   -0.00020598   -0.00035314
     atom   43 type  4   force =     0.00015522   -0.00026218   -0.00032903
     atom   44 type  4   force =     0.00018109    0.00022483   -0.00037338
     atom   45 type  4   force =     0.00515538   -0.00000019   -0.00402575

     Total force =     0.010720     Total SCF correction =     0.001509
     SCF correction compared to forces is large: reduce conv_thr to get better values

[...]

     negative rho (up, down):  1.246E-02 0.000E+00

     negative rho (up, down):  1.246E-02 0.000E+00
 BEEFens 2000 ensemble energies
             -0.610795454510539E+02
             -0.360911219294914E+01
             -0.159089205246852E+02
              0.432274385712711E+02
             -0.222685069382928E+02
             -0.206306782776654E+02
             -0.355317933927037E+02
             -0.871140530149753E+02
             -0.467417853465312E+02
             -0.475437900362192E+02
             -0.371394646834503E+02
              0.230044062051235E+01
              0.406439595165077E+01
              0.762314891388914E+01
              0.267500670724473E+01
              0.477936877433804E+02
             -0.210252763572194E+02
             -0.230930126497032E+02
              0.194393867066725E+02
             -0.113104926729788E+03
              0.539823426524829E+02
             -0.291197901674038E+02
             -0.338691130695559E+01
             -0.114861755947624E+02
             -0.882064855904969E+01
             -0.467094844146249E+01
              0.888651495449059E+02
             -0.188319436602761E+02
             -0.904559821703003E+01
             -0.521784801582378E+02
              0.820222499883196E+02
             -0.187683112201684E+02
             -0.377617021454648E+02
              0.250383438805045E+02
             -0.286924484750125E+01
              0.165697507200919E+02
             -0.486680718057227E+01
              0.108245374893901E+02
              0.290573341816983E+02
             -0.103926661221443E+03
              0.562117273006622E+02
              0.143014576423841E+02
             -0.178951231171862E+01
             -0.363270168601436E+02
              0.124023866241941E+02
             -0.147881820040457E+02
              0.401578635703497E+02
              0.367191963255432E+02
             -0.309592599569012E+02
             -0.276995041861470E+02
             -0.330281277113065E+02
             -0.354586220634812E+02
              0.137790520282640E+02
             -0.494160163332143E+02
              0.116565184910411E+02
              0.626926528280206E+02
              0.639928942135548E+02
              0.358132524029004E+02
              0.155255109548445E+02
              0.272515080573392E+02
[...]
             -0.711042373068216E+02
             -0.843667213460776E+00
             -0.245416557327135E+01
             -0.887886019574944E+01
             -0.180244197470387E+01
             -0.657174267229794E+02
             -0.211416980272483E+02
              0.548453327698852E+01
              0.907895758518299E+01
              0.471991156864318E+02
             -0.400155777530975E+02
              0.660996267862284E+02
             -0.427768132049715E+02
              0.212026617068003E+02
              0.353014951865334E+02

 BEEF-vdW xc energy contributions
           1 :   -787.180403497145
           2 :    722.499688387669
           3 :   -611.040815127496
           4 :    480.386888968260
           5 :   -358.047534396402
           6 :    263.662301951760
           7 :   -204.735079438228
           8 :    176.666311547212
           9 :   -166.768612801121
          10 :    160.395879351145
          11 :   -146.719463299675
          12 :    121.945623074689
          13 :   -89.1449940623776
          14 :    55.3353489604991
          15 :   -27.5137296416250
          16 :    9.41443075645850
          17 :  -0.238878184606278
          18 :   -4.39607557997374
          19 :    9.98211847906373
          20 :   -20.4202862002253
          21 :    36.3336630977044
          22 :   -55.0663953681753
          23 :    72.1977129898967
          24 :   -83.7484751432530
          25 :    87.9965669318949
          26 :   -86.0982374724259
          27 :    81.3270177575887
          28 :   -77.3967259581867
          29 :    76.6990823446656
          30 :   -79.2913154702195
          31 :   -86.4095490294076
          32 :   -66.0822447557611

     Writing output data file ./pwscf.save/

     General routines

     Parallel routines

   This run was terminated on:  22:58: 3  20May2022

   JOB DONE.