     Program PWSCF v.6.7MaX starts on 20May2022 at 15:27: 6

     Reading input from ch3cch3-ensemble.in
Warning: card &CELL ignored
Warning: card / ignored

     Current dimensions of program PWSCF are:
     Max number of different atomic species (ntypx) = 10
     Max number of k-points (npk) =  40000
     Max angular momentum in pseudopotentials (lmaxx) =  3
     file Pt.pbe-n-kjpaw_psl.1.0.0.UPF: wavefunction(s)  6S 5D renormalized
     file C.pbe-n-kjpaw_psl.1.0.0.UPF: wavefunction(s)  2S 2P renormalized
     file H.pbe-kjpaw_psl.1.0.0.UPF: wavefunction(s)  1S renormalized

     IMPORTANT: XC functional enforced from input :
     Exchange-correlation= BEEF-VDW
                           (   1   4  43  14   2   0   0)
     Any further DFT definition will be discarded
     Please, verify this is what you really want

     Subspace diagonalization in iterative solution of the eigenvalue problem:
     a serial algorithm will be used

     bravais-lattice index     =            0
     lattice parameter (alat)  =      16.0349  a.u.
     unit-cell volume          =   11494.2364 (a.u.)^3
     number of atoms/cell      =           45
     number of atomic types    =            3
     number of electrons       =       378.00
     number of Kohn-Sham states=          227
     kinetic-energy cutoff     =      60.0000  Ry
     charge density cutoff     =     240.0000  Ry
     scf convergence threshold =      1.0E-06
     mixing beta               =       0.7000
     number of iterations used =            8  local-TF  mixing
     Exchange-correlation= BEEF-VDW
                           (   1   4  43  14   2   0   0)

     celldm(1)=  16.034858  celldm(2)=   0.000000  celldm(3)=   0.000000
     celldm(4)=   0.000000  celldm(5)=   0.000000  celldm(6)=   0.000000

     crystal axes: (cart. coord. in units of alat)
               a(1) = (   1.000000   0.000000   0.000000 )
               a(2) = (   0.500000   0.866025   0.000000 )
               a(3) = (   0.000000   0.000000   3.219246 )

     reciprocal axes: (cart. coord. in units 2 pi/alat)
               b(1) = (  1.000000 -0.577350  0.000000 )
               b(2) = (  0.000000  1.154701  0.000000 )
               b(3) = (  0.000000  0.000000  0.310632 )

     PseudoPot. # 1 for Pt read from file:
     /users/bkreitz1/quantum-espresso/potentials/Pt.pbe-n-kjpaw_psl.1.0.0.UPF
     MD5 check sum: 04dc8a03c51ece93fc7b5889c2958091
     Pseudo is Projector augmented-wave + core cor, Zval = 10.0
     Generated using 'atomic' code by A. Dal Corso  v.6.7MaX
     Shape of augmentation charge: PSQ
     Using radial grid of 1277 points,  6 beta functions with:
                l(1) =   0
                l(2) =   0
                l(3) =   1
                l(4) =   1
                l(5) =   2
                l(6) =   2
     Q(r) pseudized with 0 coefficients

     PseudoPot. # 2 for C  read from file:
     /users/bkreitz1/quantum-espresso/potentials/C.pbe-n-kjpaw_psl.1.0.0.UPF
     MD5 check sum: a169b0ebad56f5ec0d79c4633f80bf22
     Pseudo is Projector augmented-wave + core cor, Zval =  4.0
     Generated using 'atomic' code by A. Dal Corso  v.6.7MaX
     Shape of augmentation charge: PSQ
     Using radial grid of 1073 points,  4 beta functions with:
                l(1) =   0
                l(2) =   0
                l(3) =   1
                l(4) =   1
     Q(r) pseudized with 0 coefficients

     PseudoPot. # 3 for H  read from file:
     /users/bkreitz1/quantum-espresso/potentials/H.pbe-kjpaw_psl.1.0.0.UPF
     MD5 check sum: ae98473e6dc62675f0d0baffdab24f65
     Pseudo is Projector augmented-wave, Zval =  1.0
     Generated using 'atomic' code by A. Dal Corso  v.6.7MaX
     Shape of augmentation charge: PSQ
     Using radial grid of  929 points,  2 beta functions with:
                l(1) =   0
                l(2) =   0
     Q(r) pseudized with 0 coefficients

     atomic species   valence    mass     pseudopotential
        Pt            10.00   195.08400     Pt( 1.00)
        C              4.00    12.01100     C ( 1.00)
        H              1.00     1.00800     H ( 1.00)

     No symmetry found

   Cartesian axes

     site n.     atom                  positions (alat units)
         1           Pt  tau(   1) = (   0.0000000   0.0000000   1.0017346  )
         2           Pt  tau(   2) = (   0.3333333   0.0000000   1.0017346  )
         3           Pt  tau(   3) = (   0.6666667   0.0000000   1.0017346  )
         4           Pt  tau(   4) = (   0.1666667   0.2886751   1.0017346  )
         5           Pt  tau(   5) = (   0.5000000   0.2886751   1.0017346  )
         6           Pt  tau(   6) = (   0.8333333   0.2886751   1.0017346  )
         7           Pt  tau(   7) = (   0.3333333   0.5773503   1.0017346  )
         8           Pt  tau(   8) = (   0.6666667   0.5773503   1.0017346  )
         9           Pt  tau(   9) = (   1.0000000   0.5773503   1.0017346  )
        10           Pt  tau(  10) = (   0.1666667   0.0962250   1.2739001  )
        11           Pt  tau(  11) = (   0.5000000   0.0962250   1.2739001  )
        12           Pt  tau(  12) = (   0.8333333   0.0962250   1.2739001  )
        13           Pt  tau(  13) = (   0.3333333   0.3849002   1.2739001  )
        14           Pt  tau(  14) = (   0.6666667   0.3849002   1.2739001  )
        15           Pt  tau(  15) = (   1.0000000   0.3849002   1.2739001  )
        16           Pt  tau(  16) = (   0.5000000   0.6735753   1.2739001  )
        17           Pt  tau(  17) = (   0.8333333   0.6735753   1.2739001  )
        18           Pt  tau(  18) = (   1.1666667   0.6735753   1.2739001  )
        19           Pt  tau(  19) = (  -0.0028392   0.1948889   1.5496632  )
        20           Pt  tau(  20) = (   0.3360015   0.1949926   1.5495989  )
        21           Pt  tau(  21) = (   0.6665296   0.1934348   1.5467700  )
        22           Pt  tau(  22) = (   0.1666301   0.4799179   1.5432917  )
        23           Pt  tau(  23) = (   0.4996504   0.4782513   1.5444227  )
        24           Pt  tau(  24) = (   0.8335174   0.4780289   1.5444349  )
        25           Pt  tau(  25) = (   0.3346372   0.7684669   1.5406161  )
        26           Pt  tau(  26) = (   0.6666000   0.7725573   1.5389661  )
        27           Pt  tau(  27) = (   0.9985527   0.7684055   1.5405621  )
        28           Pt  tau(  28) = (  -0.0005495   0.0008813   1.8173602  )
        29           Pt  tau(  29) = (   0.3333393   0.0009797   1.8171423  )
        30           Pt  tau(  30) = (   0.6663191  -0.0093153   1.8078783  )
        31           Pt  tau(  31) = (   0.1662012   0.2876530   1.8216564  )
        32           Pt  tau(  32) = (   0.5048659   0.2865532   1.8458147  )
        33           Pt  tau(  33) = (   0.8268860   0.2858361   1.8462521  )
        34           Pt  tau(  34) = (   0.3334165   0.5738634   1.8170125  )
        35           Pt  tau(  35) = (   0.6664880   0.5847416   1.8064962  )
        36           Pt  tau(  36) = (   0.9992544   0.5735077   1.8167677  )
        37           C   tau(  37) = (   0.6648892   0.2900563   2.0336687  )
        38           C   tau(  38) = (   0.6641004   0.1456556   2.1398043  )
        39           C   tau(  39) = (   0.6667186   0.4365499   2.1369020  )
        40           H   tau(  40) = (   0.6592090   0.0325727   2.0776833  )
        41           H   tau(  41) = (   0.7708631   0.1453384   2.2127206  )
        42           H   tau(  42) = (   0.5618944   0.1510978   2.2188230  )
        43           H   tau(  43) = (   0.6684898   0.5486062   2.0724933  )
        44           H   tau(  44) = (   0.5619274   0.4370725   2.2125944  )
        45           H   tau(  45) = (   0.7712236   0.4342576   2.2141820  )

     number of k points=    13  Marzari-Vanderbilt smearing, width (Ry)=  0.0200
                       cart. coord. in units 2pi/alat
        k(    1) = (   0.0000000   0.0000000   0.0000000), wk =   0.0800000
        k(    2) = (   0.0000000   0.2309401   0.0000000), wk =   0.1600000
        k(    3) = (   0.0000000   0.4618802   0.0000000), wk =   0.1600000
        k(    4) = (   0.2000000  -0.1154701   0.0000000), wk =   0.1600000
        k(    5) = (   0.2000000   0.1154701   0.0000000), wk =   0.1600000
        k(    6) = (   0.2000000   0.3464102   0.0000000), wk =   0.1600000
        k(    7) = (   0.2000000  -0.5773503   0.0000000), wk =   0.1600000
        k(    8) = (   0.2000000  -0.3464102   0.0000000), wk =   0.1600000
        k(    9) = (   0.4000000  -0.2309401   0.0000000), wk =   0.1600000
        k(   10) = (   0.4000000  -0.0000000   0.0000000), wk =   0.1600000
        k(   11) = (   0.4000000   0.2309401   0.0000000), wk =   0.1600000
        k(   12) = (   0.4000000  -0.6928203   0.0000000), wk =   0.1600000
        k(   13) = (   0.4000000  -0.4618802   0.0000000), wk =   0.1600000

     Check: negative core charge=   -0.000002

     Initial potential from superposition of free atoms

     starting charge  377.99371, renormalised to  378.00000

     negative rho (up, down):  1.119E-02 0.000E+00

     %%%%%%%%%%%%%%%%%%%%%%%%%%%%%%%%%%%%%%%%%%%%%%%%%%%%%%%%%%%%%%%%%%%%%%%%
     %                                                                      %
     % You are using vdW-DF, which was implemented by the Thonhauser group. %
     % Please cite the following two papers that made this development      %
     % possible and the two reviews that describe the various versions:     %
     %                                                                      %
     %   T. Thonhauser et al., PRL 115, 136402 (2015).                      %
     %   T. Thonhauser et al., PRB 76, 125112 (2007).                       %
     %   K. Berland et al., Rep. Prog. Phys. 78, 066501 (2015).             %
     %   D.C. Langreth et al., J. Phys.: Condens. Matter 21, 084203 (2009). %
     %                                                                      %
     %                                                                      %
     % If you are calculating the stress with vdW-DF, please also cite:     %
     %                                                                      %
     %   R. Sabatini et al., J. Phys.: Condens. Matter 24, 424209 (2012).   %
     %                                                                      %
     %%%%%%%%%%%%%%%%%%%%%%%%%%%%%%%%%%%%%%%%%%%%%%%%%%%%%%%%%%%%%%%%%%%%%%%%

     Starting wfcs are  342 randomized atomic wfcs
     Checking if some PAW data can be deallocated...

     Self-consistent Calculation

     iteration #  1     ecut=    60.00 Ry     beta= 0.70
     Davidson diagonalization with overlap
     ethr =  1.00E-02,  avg # of iterations =  2.7

     Threshold (ethr) on eigenvalues was too large:
     Diagonalizing with lowered threshold

     Davidson diagonalization with overlap
     ethr =  8.45E-04,  avg # of iterations =  2.8

[...]

     total energy              =  -27818.37398341 Ry
     estimated scf accuracy    <       3.46819138 Ry

[...]

     iteration #  6     ecut=    60.00 Ry     beta= 0.70
     Davidson diagonalization with overlap
     c_bands:  1 eigenvalues not converged
     c_bands:  2 eigenvalues not converged
     c_bands:  2 eigenvalues not converged
     c_bands:  2 eigenvalues not converged
     c_bands:  2 eigenvalues not converged
     ethr =  1.32E-05,  avg # of iterations = 14.8

[...]

     iteration # 16     ecut=    60.00 Ry     beta= 0.70
     Davidson diagonalization with overlap
     c_bands:  1 eigenvalues not converged
     ethr =  2.44E-08,  avg # of iterations =  4.8

[...]

     total energy              =  -27818.61523872 Ry
     estimated scf accuracy    <       0.00000173 Ry

     iteration # 20     ecut=    60.00 Ry     beta= 0.70
     Davidson diagonalization with overlap
     ethr =  4.59E-10,  avg # of iterations =  4.3

[...]

     End of self-consistent calculation

          k = 0.0000 0.0000 0.0000 ( 90259 PWs)   bands (ev):

   -13.3133 -10.7474  -7.7213  -6.7365  -5.5704  -4.9878  -4.6275  -4.3782
    -4.3703  -4.3507  -4.3302  -4.3083  -4.2794  -4.2697  -4.1907  -4.0897
    -3.8033  -3.7885  -3.7676  -3.7504  -3.7474  -3.7310  -3.3975  -3.3377
    -3.3067  -3.3005  -3.2782  -3.2762  -3.1300  -3.1098  -3.1023  -3.0783
    -3.0672  -3.0487  -3.0346  -2.9398  -2.8976  -2.8844  -2.8747  -2.8667
    -2.8417  -2.8394  -2.8233  -2.8072  -2.7912  -2.7854  -2.7666  -2.5037
    -2.2958  -2.2652  -2.2547  -2.2491  -2.2279  -2.2258  -2.1694  -2.1557
    -2.1453  -2.1168  -2.0312  -2.0056  -1.9678  -1.9264  -1.8305  -1.5425
    -1.5240  -1.4415  -1.4408  -1.4149  -1.3692  -1.3646  -1.2969  -1.2823
    -1.2580  -1.2488  -1.2466  -1.2355  -1.2178  -1.2118  -1.2057  -1.1847
    -1.1634  -1.1585  -1.1485  -1.1465  -1.1145  -1.1019  -1.0530  -1.0327
    -1.0145  -1.0034  -0.9695  -0.8794  -0.8664  -0.8448  -0.8174  -0.8065
    -0.7900  -0.7630  -0.7440  -0.7402  -0.7082  -0.6796  -0.6391  -0.5954
    -0.5947  -0.5820  -0.5550  -0.5540  -0.4863  -0.4505  -0.4492  -0.3904
    -0.3819  -0.3725  -0.3507  -0.2309  -0.1097  -0.0207  -0.0117   0.0408
     0.0696   0.1112   0.1199   0.1221   0.1498   0.1940   0.2190   0.2697
     0.2738   0.3030   0.3195   0.3593   0.3734   0.3842   0.4635   0.4805
     0.5018   0.5548   0.5917   0.5979   0.6121   0.6133   0.7655   0.8035
     0.8277   0.8339   0.8375   0.8552   0.8974   0.9015   0.9198   1.0788
     1.0904   1.0927   1.1205   1.1348   1.1855   1.2123   1.2366   1.2501
     1.2637   1.2758   1.2827   1.2843   1.2913   1.3163   1.3178   1.3348
     1.3525   1.3711   1.3798   1.4258   1.4359   1.4494   1.4712   1.5008
     1.5082   1.5142   1.5292   1.5448   1.5506   1.5792   1.5971   1.6495
     1.6519   1.6523   1.6743   1.6882   1.6981   1.7224   1.7456   1.7612
     1.7749   1.7981   1.8144   1.8156   1.9506   1.9757   2.0556   2.0713
     2.0901   2.1205   2.1235   2.1259   2.5318   2.5491   2.9044   2.9651
     2.9909   3.0156   3.1218   3.8874   4.6021   5.2497   5.2594   5.3128
     5.3748   5.7120   5.8264   6.2624   6.6470   6.8769   6.8791   6.9163
     6.9169   6.9424   7.0318

[...]

          k = 0.4000-0.4619 0.0000 ( 90250 PWs)   bands (ev):

   -13.3129 -10.7482  -7.7080  -5.7921  -5.7803  -5.2075  -5.0982  -4.6840
    -4.4852  -4.4030  -4.1475  -3.9882  -3.9468  -3.8614  -3.8320  -3.7266
    -3.7179  -3.6186  -3.6034  -3.5171  -3.5036  -3.4969  -3.4617  -3.4402
    -3.4210  -3.3837  -3.3103  -3.2958  -3.2809  -3.2389  -3.2281  -3.1609
    -3.1047  -3.0613  -3.0335  -3.0176  -2.9543  -2.9209  -2.8973  -2.8534
    -2.8303  -2.8052  -2.7444  -2.6734  -2.6367  -2.5583  -2.4821  -2.4480
    -2.4130  -2.3734  -2.3257  -2.2818  -2.2335  -2.1757  -2.1226  -2.0864
    -2.0673  -2.0321  -2.0115  -1.9812  -1.9635  -1.9382  -1.8590  -1.8520
    -1.8252  -1.8100  -1.7871  -1.7793  -1.7594  -1.7180  -1.6872  -1.6189
    -1.5807  -1.5465  -1.5189  -1.4529  -1.4167  -1.3898  -1.3676  -1.3509
    -1.3121  -1.2906  -1.2503  -1.2321  -1.1963  -1.1770  -1.1540  -1.1285
    -1.1013  -1.0519  -1.0072  -0.9765  -0.9555  -0.9484  -0.9198  -0.8712
    -0.8257  -0.7789  -0.7660  -0.7589  -0.7164  -0.7017  -0.6934  -0.6607
    -0.6409  -0.6327  -0.6147  -0.5833  -0.5683  -0.5422  -0.5232  -0.5132
    -0.5096  -0.4863  -0.4751  -0.4423  -0.3846  -0.3400  -0.2203  -0.1791
    -0.1437  -0.1076  -0.0783  -0.0353  -0.0178   0.0334   0.0439   0.0680
     0.0861   0.1150   0.1492   0.1782   0.2107   0.2349   0.2673   0.3024
     0.3427   0.3608   0.3937   0.4770   0.5194   0.5480   0.6103   0.6489
     0.6692   0.6835   0.7129   0.7416   0.7709   0.7967   0.8228   0.8332
     0.8550   0.8946   0.9350   0.9559   0.9951   1.0165   1.0225   1.0729
     1.0809   1.1339   1.1943   1.2578   1.3143   1.3333   1.4493   1.4753
     1.4891   1.5140   1.5559   1.6138   1.6457   1.6809   1.7460   1.7812
     1.7876   1.8129   1.8344   1.8449   1.8812   1.8960   1.9692   1.9847
     1.9925   2.0188   2.0357   2.0454   2.0718   2.1254   2.1804   2.2307
     2.2550   2.2734   2.2883   2.3292   2.3744   2.4467   2.5621   3.0571
     3.1153   3.4150   3.4290   3.6863   3.7178   3.7657   3.7984   3.9748
     4.1413   4.3885   4.4324   4.5261   4.8717   4.9548   4.9983   5.0212
     5.1500   5.2670   5.3347   5.4124   5.6629   5.7792   5.8540   6.1932
     6.4494   6.5021   6.5724

     the Fermi energy is     2.0423 ev

!    total energy              =  -27818.61523904 Ry

     total all-electron energy =  -1326878.672925 Ry
     estimated scf accuracy    <       0.00000030 Ry
     smearing contrib. (-TS)   =       0.00294796 Ry
     internal energy E=F+TS    =  -27818.61818699 Ry

     The total energy is F=E-TS. E is the sum of the following terms:
     one-electron contribution =  -27717.37783860 Ry
     hartree contribution      =   14165.65202362 Ry
     xc contribution           =    -909.00581553 Ry
     ewald contribution        =   12135.71547340 Ry
     one-center paw contrib.   =  -25493.60202989 Ry

     convergence has been achieved in  20 iterations

[...]

     Forces acting on atoms (cartesian axes, Ry/au):

     atom    1 type  1   force =    -0.00162629   -0.00008709   -0.00562728
     atom    2 type  1   force =     0.00164131   -0.00003533   -0.00558042
     atom    3 type  1   force =     0.00002295   -0.00013649   -0.00426295
     atom    4 type  1   force =     0.00001227   -0.00079194   -0.00278058
     atom    5 type  1   force =    -0.00036518   -0.00033931   -0.00291849
     atom    6 type  1   force =     0.00043567   -0.00032896   -0.00291730
     atom    7 type  1   force =     0.00003120    0.00082697   -0.00370903
     atom    8 type  1   force =    -0.00001844    0.00065183   -0.00379427
     atom    9 type  1   force =     0.00003912    0.00082069   -0.00372894
     atom   10 type  1   force =    -0.00005086    0.00316143    0.00026611
     atom   11 type  1   force =    -0.00238317    0.00259287    0.00525475
     atom   12 type  1   force =     0.00240438    0.00262650    0.00531501
     atom   13 type  1   force =    -0.00009010   -0.00345714    0.00977996
     atom   14 type  1   force =     0.00001156   -0.00076944    0.00913473
     atom   15 type  1   force =     0.00008864   -0.00349761    0.00977894
     atom   16 type  1   force =     0.00042480   -0.00011468   -0.00258473
     atom   17 type  1   force =    -0.00046556   -0.00023858   -0.00257240
     atom   18 type  1   force =     0.00000336   -0.00081297    0.00003272
     atom   19 type  1   force =    -0.00004265   -0.00016134   -0.00018212
     atom   20 type  1   force =    -0.00005683   -0.00026542   -0.00001004
     atom   21 type  1   force =    -0.00001310   -0.00021344   -0.00019994
     atom   22 type  1   force =    -0.00008067    0.00031428    0.00013683
     atom   23 type  1   force =     0.00004618    0.00033593    0.00029284
     atom   24 type  1   force =    -0.00010719    0.00050011    0.00037112
     atom   25 type  1   force =    -0.00020864    0.00020540    0.00022534
     atom   26 type  1   force =    -0.00001367   -0.00045293   -0.00005304
     atom   27 type  1   force =     0.00010414    0.00021703    0.00024625
     atom   28 type  1   force =     0.00000627   -0.00002067   -0.00015799
     atom   29 type  1   force =    -0.00029557   -0.00018075   -0.00023023
     atom   30 type  1   force =     0.00007849    0.00000739   -0.00007620
     atom   31 type  1   force =    -0.00000155    0.00002368   -0.00018227
     atom   32 type  1   force =     0.00004678   -0.00002049    0.00023132
     atom   33 type  1   force =    -0.00021607   -0.00008314    0.00028923
     atom   34 type  1   force =     0.00012534    0.00026104   -0.00017592
     atom   35 type  1   force =    -0.00013322    0.00010809   -0.00025504
     atom   36 type  1   force =    -0.00013114    0.00053916   -0.00000124
     atom   37 type  2   force =     0.00198715    0.00058152    0.00158126
     atom   38 type  2   force =     0.00016838   -0.00005110    0.00085009
     atom   39 type  2   force =     0.00396273   -0.00171385    0.00402436
     atom   40 type  3   force =     0.00014643    0.00029796    0.00007512
     atom   41 type  3   force =    -0.00026571    0.00033416   -0.00019314
     atom   42 type  3   force =     0.00015009   -0.00009658   -0.00042336
     atom   43 type  3   force =     0.00028018   -0.00030270    0.00070349
     atom   44 type  3   force =    -0.00038231   -0.00000249   -0.00058719
     atom   45 type  3   force =    -0.00526948   -0.00023160   -0.00538535

     Total force =     0.010162     Total SCF correction =     0.000699

[...]

     negative rho (up, down):  1.251E-02 0.000E+00

     negative rho (up, down):  1.251E-02 0.000E+00
 BEEFens 2000 ensemble energies
             -0.608783513346574E+02
             -0.362160660622555E+01
             -0.158632145004174E+02
              0.430845841272179E+02
             -0.221806286945407E+02
             -0.205606784504636E+02
             -0.353792260319775E+02
             -0.867932505304837E+02
             -0.465532260778683E+02
             -0.473427832524131E+02
             -0.370501749788557E+02
              0.230529788552522E+01
              0.408551706307640E+01
              0.757817223936337E+01
              0.266731192045108E+01
              0.476408178667045E+02
             -0.209157150839599E+02
             -0.230014269332742E+02
              0.193990197422204E+02
             -0.112697904131802E+03
              0.537956755913492E+02
             -0.290350196317481E+02
             -0.337256488880894E+01
             -0.114272694458364E+02
             -0.879677226803051E+01
             -0.461101186649017E+01
              0.885196747407269E+02
             -0.188465390844951E+02
             -0.900126281178109E+01
             -0.520176541814854E+02
              0.816962619283051E+02
             -0.186864259750635E+02
             -0.376180862043116E+02
              0.249388982136133E+02
             -0.285704164539322E+01
              0.165384791626321E+02
             -0.483430184658096E+01
              0.107803368874714E+02
              0.290110901837884E+02
             -0.103520779006931E+03
              0.560134046948721E+02
              0.142822396873966E+02
             -0.179668404327248E+01
             -0.362055263436586E+02
              0.123672030538116E+02
             -0.147668481730501E+02
              0.400112875375410E+02
              0.365654358449244E+02
             -0.308302686910982E+02
             -0.276026273041485E+02
             -0.329642574074513E+02
             -0.353371805951917E+02
              0.137485711346968E+02
             -0.492287131967220E+02
              0.116196802686972E+02
              0.624794825964383E+02
              0.637908377794683E+02
              0.356737066173812E+02
              0.154259734390942E+02
              0.271771537995960E+02
[...]
             -0.708557425861924E+02
             -0.831756501034306E+00
             -0.247757616509411E+01
             -0.885935310646937E+01
             -0.180938060247479E+01
             -0.654604798168592E+02
             -0.210431588107876E+02
              0.544823627692143E+01
              0.906856814699583E+01
              0.470558797205873E+02
             -0.399231612913974E+02
              0.658096606205424E+02
             -0.426421684518335E+02
              0.211523851107269E+02
              0.351629561545680E+02

 BEEF-vdW xc energy contributions
           1 :   -784.725683469898
           2 :    720.645435876823
           3 :   -609.752919675622
           4 :    479.298330013299
           5 :   -356.933568367488
           6 :    262.562955255287
           7 :   -203.829188886504
           8 :    176.100583054388
           9 :   -166.549141156094
          10 :    160.391217963624
          11 :   -146.736964917418
          12 :    121.836946688632
          13 :   -88.8818665917870
          14 :    55.0165030025792
          15 :   -27.2920148430510
          16 :    9.39344601900007
          17 :  -0.404374008891409
          18 :   -4.16676614588050
          19 :    9.84244128199066
          20 :   -20.4601265730394
          21 :    36.5308509432984
          22 :   -55.3074751191309
          23 :    72.3522724747916
          24 :   -83.7501790759002
          25 :    87.8819765405196
          26 :   -85.9842901671443
          27 :    81.3424273118844
          28 :   -77.6010374063455
          29 :    77.0388865701791
          30 :   -79.6214549222739
          31 :   -86.1890095422086
          32 :   -66.0076155669919

     Writing output data file ./pwscf.save/

     General routines

     Parallel routines

   This run was terminated on:  19:17:13  20May2022

   JOB DONE.