     Program PWSCF v.6.7MaX starts on 20May2022 at 16:46:13

     Reading input from ch3cho-ensemble.in
Warning: card &CELL ignored
Warning: card / ignored

     Current dimensions of program PWSCF are:
     Max number of different atomic species (ntypx) = 10
     Max number of k-points (npk) =  40000
     Max angular momentum in pseudopotentials (lmaxx) =  3
     file Pt.pbe-n-kjpaw_psl.1.0.0.UPF: wavefunction(s)  6S 5D renormalized
     file C.pbe-n-kjpaw_psl.1.0.0.UPF: wavefunction(s)  2S 2P renormalized
     file O.pbe-nl-kjpaw_psl.1.0.0.UPF: wavefunction(s)  2S 2P renormalized
     file H.pbe-kjpaw_psl.1.0.0.UPF: wavefunction(s)  1S renormalized

     IMPORTANT: XC functional enforced from input :
     Exchange-correlation= BEEF-VDW
                           (   1   4  43  14   2   0   0)
     Any further DFT definition will be discarded
     Please, verify this is what you really want

     Subspace diagonalization in iterative solution of the eigenvalue problem:
     a serial algorithm will be used

     bravais-lattice index     =            0
     lattice parameter (alat)  =      16.0349  a.u.
     unit-cell volume          =   12166.1972 (a.u.)^3
     number of atoms/cell      =           43
     number of atomic types    =            4
     number of electrons       =       378.00
     number of Kohn-Sham states=          227
     kinetic-energy cutoff     =      60.0000  Ry
     charge density cutoff     =     240.0000  Ry
     scf convergence threshold =      1.0E-06
     mixing beta               =       0.7000
     number of iterations used =            8  local-TF  mixing
     Exchange-correlation= BEEF-VDW
                           (   1   4  43  14   2   0   0)

     celldm(1)=  16.034858  celldm(2)=   0.000000  celldm(3)=   0.000000
     celldm(4)=   0.000000  celldm(5)=   0.000000  celldm(6)=   0.000000

     crystal axes: (cart. coord. in units of alat)
               a(1) = (   1.000000   0.000000   0.000000 )
               a(2) = (   0.500000   0.866025   0.000000 )
               a(3) = (   0.000000   0.000000   3.407445 )

     reciprocal axes: (cart. coord. in units 2 pi/alat)
               b(1) = (  1.000000 -0.577350  0.000000 )
               b(2) = (  0.000000  1.154701  0.000000 )
               b(3) = (  0.000000  0.000000  0.293475 )

     PseudoPot. # 1 for Pt read from file:
     /users/bkreitz1/quantum-espresso/potentials/Pt.pbe-n-kjpaw_psl.1.0.0.UPF
     MD5 check sum: 04dc8a03c51ece93fc7b5889c2958091
     Pseudo is Projector augmented-wave + core cor, Zval = 10.0
     Generated using 'atomic' code by A. Dal Corso  v.6.7MaX
     Shape of augmentation charge: PSQ
     Using radial grid of 1277 points,  6 beta functions with:
                l(1) =   0
                l(2) =   0
                l(3) =   1
                l(4) =   1
                l(5) =   2
                l(6) =   2
     Q(r) pseudized with 0 coefficients

     PseudoPot. # 2 for C  read from file:
     /users/bkreitz1/quantum-espresso/potentials/C.pbe-n-kjpaw_psl.1.0.0.UPF
     MD5 check sum: a169b0ebad56f5ec0d79c4633f80bf22
     Pseudo is Projector augmented-wave + core cor, Zval =  4.0
     Generated using 'atomic' code by A. Dal Corso  v.6.7MaX
     Shape of augmentation charge: PSQ
     Using radial grid of 1073 points,  4 beta functions with:
                l(1) =   0
                l(2) =   0
                l(3) =   1
                l(4) =   1
     Q(r) pseudized with 0 coefficients

     PseudoPot. # 3 for O  read from file:
     /users/bkreitz1/quantum-espresso/potentials/O.pbe-nl-kjpaw_psl.1.0.0.UPF
     MD5 check sum: eef08af8b58d9ec80f8fdb78829eb7cf
     Pseudo is Projector augmented-wave + core cor, Zval =  6.0
     Generated using 'atomic' code by A. Dal Corso  v.6.7MaX
     Shape of augmentation charge: PSQ
     Using radial grid of 1095 points,  4 beta functions with:
                l(1) =   0
                l(2) =   0
                l(3) =   1
                l(4) =   1
     Q(r) pseudized with 0 coefficients

     PseudoPot. # 4 for H  read from file:
     /users/bkreitz1/quantum-espresso/potentials/H.pbe-kjpaw_psl.1.0.0.UPF
     MD5 check sum: ae98473e6dc62675f0d0baffdab24f65
     Pseudo is Projector augmented-wave, Zval =  1.0
     Generated using 'atomic' code by A. Dal Corso  v.6.7MaX
     Shape of augmentation charge: PSQ
     Using radial grid of  929 points,  2 beta functions with:
                l(1) =   0
                l(2) =   0
     Q(r) pseudized with 0 coefficients

     atomic species   valence    mass     pseudopotential
        Pt            10.00   195.08400     Pt( 1.00)
        C              4.00    12.01100     C ( 1.00)
        O              6.00    15.99900     O ( 1.00)
        H              1.00     1.00800     H ( 1.00)

     No symmetry found

   Cartesian axes

     site n.     atom                  positions (alat units)
         1           Pt  tau(   1) = (   0.0000000   0.0000000   1.0017346  )
         2           Pt  tau(   2) = (   0.3333333   0.0000000   1.0017346  )
         3           Pt  tau(   3) = (   0.6666667   0.0000000   1.0017346  )
         4           Pt  tau(   4) = (   0.1666667   0.2886751   1.0017346  )
         5           Pt  tau(   5) = (   0.5000000   0.2886751   1.0017346  )
         6           Pt  tau(   6) = (   0.8333333   0.2886751   1.0017346  )
         7           Pt  tau(   7) = (   0.3333333   0.5773503   1.0017346  )
         8           Pt  tau(   8) = (   0.6666667   0.5773503   1.0017346  )
         9           Pt  tau(   9) = (   1.0000000   0.5773503   1.0017346  )
        10           Pt  tau(  10) = (   0.1666667   0.0962250   1.2739001  )
        11           Pt  tau(  11) = (   0.5000000   0.0962250   1.2739001  )
        12           Pt  tau(  12) = (   0.8333333   0.0962250   1.2739001  )
        13           Pt  tau(  13) = (   0.3333333   0.3849002   1.2739001  )
        14           Pt  tau(  14) = (   0.6666667   0.3849002   1.2739001  )
        15           Pt  tau(  15) = (   1.0000000   0.3849002   1.2739001  )
        16           Pt  tau(  16) = (   0.5000000   0.6735753   1.2739001  )
        17           Pt  tau(  17) = (   0.8333333   0.6735753   1.2739001  )
        18           Pt  tau(  18) = (   1.1666667   0.6735753   1.2739001  )
        19           Pt  tau(  19) = (  -0.0000576   0.1926865   1.5428928  )
        20           Pt  tau(  20) = (   0.3331735   0.1926177   1.5428721  )
        21           Pt  tau(  21) = (   0.6667878   0.1926032   1.5427729  )
        22           Pt  tau(  22) = (   0.1667441   0.4813948   1.5431677  )
        23           Pt  tau(  23) = (   0.4998419   0.4814303   1.5427760  )
        24           Pt  tau(  24) = (   0.8334270   0.4812262   1.5427378  )
        25           Pt  tau(  25) = (   0.3332798   0.7699587   1.5431654  )
        26           Pt  tau(  26) = (   0.6666419   0.7701027   1.5429234  )
        27           Pt  tau(  27) = (   0.9999751   0.7700359   1.5431533  )
        28           Pt  tau(  28) = (  -0.0000219   0.0008707   1.8172006  )
        29           Pt  tau(  29) = (   0.3331802   0.0006181   1.8174791  )
        30           Pt  tau(  30) = (   0.6663790   0.0008011   1.8174860  )
        31           Pt  tau(  31) = (   0.1664759   0.2890005   1.8171670  )
        32           Pt  tau(  32) = (   0.4998758   0.2888124   1.8162634  )
        33           Pt  tau(  33) = (   0.8331313   0.2891916   1.8173899  )
        34           Pt  tau(  34) = (   0.3327279   0.5782951   1.8174426  )
        35           Pt  tau(  35) = (   0.6671718   0.5780515   1.8164601  )
        36           Pt  tau(  36) = (   0.9996475   0.5779177   1.8173047  )
        37           C   tau(  37) = (   0.5564855   0.3705052   2.3107164  )
        38           C   tau(  38) = (   0.5027091   0.5078869   2.2132651  )
        39           O   tau(  39) = (   0.3653341   0.5413964   2.1873929  )
        40           H   tau(  40) = (   0.6372338   0.4114838   2.4025714  )
        41           H   tau(  41) = (   0.4568457   0.3083425   2.3623968  )
        42           H   tau(  42) = (   0.6243795   0.2907067   2.2350490  )
        43           H   tau(  43) = (   0.5987097   0.5797170   2.1612678  )

     number of k points=    13  Marzari-Vanderbilt smearing, width (Ry)=  0.0200
                       cart. coord. in units 2pi/alat
        k(    1) = (   0.0000000   0.0000000   0.0000000), wk =   0.0800000
        k(    2) = (   0.0000000   0.2309401   0.0000000), wk =   0.1600000
        k(    3) = (   0.0000000   0.4618802   0.0000000), wk =   0.1600000
        k(    4) = (   0.2000000  -0.1154701   0.0000000), wk =   0.1600000
        k(    5) = (   0.2000000   0.1154701   0.0000000), wk =   0.1600000
        k(    6) = (   0.2000000   0.3464102   0.0000000), wk =   0.1600000
        k(    7) = (   0.2000000  -0.5773503   0.0000000), wk =   0.1600000
        k(    8) = (   0.2000000  -0.3464102   0.0000000), wk =   0.1600000
        k(    9) = (   0.4000000  -0.2309401   0.0000000), wk =   0.1600000
        k(   10) = (   0.4000000  -0.0000000   0.0000000), wk =   0.1600000
        k(   11) = (   0.4000000   0.2309401   0.0000000), wk =   0.1600000
        k(   12) = (   0.4000000  -0.6928203   0.0000000), wk =   0.1600000
        k(   13) = (   0.4000000  -0.4618802   0.0000000), wk =   0.1600000

     Check: negative core charge=   -0.000002

     Initial potential from superposition of free atoms

     starting charge  377.99377, renormalised to  378.00000

     negative rho (up, down):  1.110E-02 0.000E+00

     %%%%%%%%%%%%%%%%%%%%%%%%%%%%%%%%%%%%%%%%%%%%%%%%%%%%%%%%%%%%%%%%%%%%%%%%
     %                                                                      %
     % You are using vdW-DF, which was implemented by the Thonhauser group. %
     % Please cite the following two papers that made this development      %
     % possible and the two reviews that describe the various versions:     %
     %                                                                      %
     %   T. Thonhauser et al., PRL 115, 136402 (2015).                      %
     %   T. Thonhauser et al., PRB 76, 125112 (2007).                       %
     %   K. Berland et al., Rep. Prog. Phys. 78, 066501 (2015).             %
     %   D.C. Langreth et al., J. Phys.: Condens. Matter 21, 084203 (2009). %
     %                                                                      %
     %                                                                      %
     % If you are calculating the stress with vdW-DF, please also cite:     %
     %                                                                      %
     %   R. Sabatini et al., J. Phys.: Condens. Matter 24, 424209 (2012).   %
     %                                                                      %
     %%%%%%%%%%%%%%%%%%%%%%%%%%%%%%%%%%%%%%%%%%%%%%%%%%%%%%%%%%%%%%%%%%%%%%%%

     Starting wfcs are  340 randomized atomic wfcs
     Checking if some PAW data can be deallocated...

     Self-consistent Calculation

     iteration #  1     ecut=    60.00 Ry     beta= 0.70
     Davidson diagonalization with overlap
     ethr =  1.00E-02,  avg # of iterations =  2.8

[...]

     total energy              =  -27838.64323851 Ry
     estimated scf accuracy    <       5.81004169 Ry

[...]

     iteration #  6     ecut=    60.00 Ry     beta= 0.70
     Davidson diagonalization with overlap
     c_bands:  1 eigenvalues not converged
     c_bands:  1 eigenvalues not converged
     c_bands:  2 eigenvalues not converged
     ethr =  6.46E-06,  avg # of iterations = 12.2

[...]

     iteration #  9     ecut=    60.00 Ry     beta= 0.70
     Davidson diagonalization with overlap
     c_bands:  1 eigenvalues not converged
     ethr =  5.42E-07,  avg # of iterations = 12.9

[...]

     total energy              =  -27839.64199115 Ry
     estimated scf accuracy    <       0.00000155 Ry

     iteration # 21     ecut=    60.00 Ry     beta= 0.70
     Davidson diagonalization with overlap
     ethr =  4.10E-10,  avg # of iterations =  2.2

[...]

     End of self-consistent calculation

          k = 0.0000 0.0000 0.0000 ( 95415 PWs)   bands (ev):

   -19.9377 -12.3040  -7.9111  -7.3915  -6.0887  -5.2526  -5.0072  -4.9707
    -4.9700  -4.9686  -4.9683  -4.9670  -4.9661  -4.9572  -4.4655  -4.4138
    -4.4131  -4.4121  -4.4116  -4.4112  -4.4068  -4.1424  -3.9405  -3.9401
    -3.9383  -3.9377  -3.9371  -3.9358  -3.7250  -3.7237  -3.7232  -3.7224
    -3.7217  -3.7216  -3.4931  -3.4924  -3.4866  -3.4844  -3.4813  -3.4803
    -3.4794  -3.4780  -3.4776  -3.4757  -3.4548  -3.4524  -3.2320  -2.8810
    -2.8801  -2.8462  -2.8442  -2.7969  -2.7936  -2.7924  -2.7909  -2.7900
    -2.7895  -2.6524  -2.6517  -2.5810  -2.5516  -2.5359  -2.0492  -2.0462
    -2.0453  -2.0448  -2.0441  -2.0396  -1.9825  -1.8872  -1.8872  -1.8587
    -1.8584  -1.8470  -1.8432  -1.8293  -1.8232  -1.8221  -1.8205  -1.8200
    -1.8194  -1.8126  -1.7844  -1.7840  -1.6347  -1.6337  -1.6305  -1.6295
    -1.6284  -1.6251  -1.4717  -1.4701  -1.4682  -1.4679  -1.4668  -1.4642
    -1.3790  -1.3787  -1.2809  -1.2804  -1.2175  -1.2175  -1.2099  -1.2075
    -1.1715  -1.1712  -1.1612  -1.1549  -1.0119  -1.0073  -1.0045  -1.0024
    -1.0016  -0.9965  -0.9760  -0.5116  -0.5089  -0.5085  -0.5071  -0.5066
    -0.5052  -0.4423  -0.4385  -0.4355  -0.4334  -0.4324  -0.4313  -0.3682
    -0.3656  -0.2018  -0.1981  -0.1904  -0.1871  -0.1867  -0.1808  -0.0519
    -0.0503  -0.0439  -0.0387  -0.0352  -0.0351   0.2199   0.2224   0.2231
     0.2241   0.2257   0.2261   0.2932   0.3008   0.3085   0.4794   0.4804
     0.4827   0.4847   0.4873   0.5189   0.6523   0.6546   0.6561   0.6567
     0.6576   0.6585   0.6930   0.6962   0.6983   0.7011   0.7083   0.7468
     0.8305   0.8484   0.8497   0.8515   0.8524   0.8529   0.8540   0.8570
     0.9499   0.9544   0.9590   0.9604   0.9613   0.9622   0.9651   0.9652
     1.0567   1.0588   1.0613   1.0630   1.0639   1.0646   1.1621   1.1688
     1.1703   1.1712   1.1733   1.1739   1.2726   1.3857   1.3898   1.4935
     1.4938   1.4949   1.4959   1.4970   1.4984   2.3378   2.3749   2.3754
     2.3803   2.3875   2.3935   2.4655   4.3842   4.6902   4.6991   4.7103
     4.7186   4.7748   4.8396   5.6411   6.2285   6.2556   6.2587   6.3092
     6.3120   6.3141   6.3144

[...]

          k = 0.4000-0.4619 0.0000 ( 95506 PWs)   bands (ev):

   -19.9376 -12.3040  -7.9110  -6.4243  -6.4224  -5.8155  -5.2669  -5.1682
    -5.1488  -4.6549  -4.6523  -4.5172  -4.4826  -4.4637  -4.3735  -4.3719
    -4.2657  -4.2642  -4.1521  -4.1421  -4.1407  -4.1323  -4.0997  -4.0974
    -4.0712  -4.0680  -3.9440  -3.9330  -3.9312  -3.8890  -3.8871  -3.7929
    -3.7000  -3.6769  -3.6140  -3.5174  -3.5165  -3.5050  -3.5038  -3.4830
    -3.3761  -3.3739  -3.2799  -3.2766  -3.2317  -3.1022  -3.0920  -3.0379
    -2.9377  -2.9366  -2.8848  -2.8843  -2.7769  -2.7241  -2.6810  -2.6773
    -2.6567  -2.6127  -2.6078  -2.5888  -2.5649  -2.4731  -2.4675  -2.4414
    -2.4403  -2.4364  -2.4340  -2.4208  -2.3605  -2.3574  -2.2262  -2.2069
    -2.1574  -2.1531  -2.0415  -2.0023  -1.9998  -1.9974  -1.9495  -1.9135
    -1.9127  -1.8237  -1.7999  -1.7972  -1.7908  -1.7599  -1.7286  -1.6807
    -1.6766  -1.6312  -1.5762  -1.5736  -1.5598  -1.5553  -1.4465  -1.3984
    -1.3955  -1.3549  -1.3527  -1.3107  -1.3088  -1.2964  -1.2936  -1.2653
    -1.2619  -1.2158  -1.2141  -1.1773  -1.1653  -1.1646  -1.1585  -1.1564
    -1.1436  -1.1126  -1.0478  -1.0428  -1.0418  -0.8341  -0.8257  -0.7322
    -0.7316  -0.6222  -0.6142  -0.6098  -0.5837  -0.5267  -0.5239  -0.5220
    -0.4990  -0.4912  -0.4097  -0.3802  -0.3760  -0.3108  -0.2958  -0.2782
    -0.2319  -0.2168  -0.1753  -0.0331   0.0292   0.0324   0.0482   0.0531
     0.1412   0.1457   0.1533   0.1709   0.1771   0.2014   0.2233   0.2316
     0.3089   0.3521   0.3600   0.3938   0.4195   0.4335   0.4414   0.4538
     0.4674   0.4962   0.6265   0.6806   0.7045   0.7870   0.7922   0.8676
     0.8700   0.9549   0.9934   1.0026   1.0091   1.1072   1.1164   1.1807
     1.2098   1.2219   1.2297   1.2365   1.2759   1.2816   1.3167   1.3889
     1.3903   1.4128   1.4409   1.4433   1.4485   1.4616   1.5076   1.6481
     1.6541   1.6549   1.6561   1.6596   1.7315   1.7995   1.8468   1.9856
     2.8068   2.8071   3.0322   3.0569   3.0958   3.2085   3.2097   3.2164
     3.6564   3.8176   3.8201   4.2415   4.2776   4.3066   4.4034   4.4240
     4.5331   4.6448   4.7224   4.8013   4.8649   5.1606   5.2582   5.2709
     5.7677   5.8990   5.9021

     the Fermi energy is     1.4212 ev

!    total energy              =  -27839.64199038 Ry

     total all-electron energy =  -1326950.782483 Ry
     estimated scf accuracy    <       0.00000042 Ry
     smearing contrib. (-TS)   =       0.00257978 Ry
     internal energy E=F+TS    =  -27839.64457016 Ry

     The total energy is F=E-TS. E is the sum of the following terms:
     one-electron contribution =  -30674.36011852 Ry
     hartree contribution      =   15636.99731925 Ry
     xc contribution           =    -910.27765168 Ry
     ewald contribution        =   13605.18132235 Ry
     one-center paw contrib.   =  -25497.18544156 Ry

     convergence has been achieved in  21 iterations

[...]

     Forces acting on atoms (cartesian axes, Ry/au):

     atom    1 type  1   force =    -0.00011993    0.00009366   -0.00340032
     atom    2 type  1   force =     0.00002090   -0.00005381   -0.00340982
     atom    3 type  1   force =     0.00002543    0.00002233   -0.00347012
     atom    4 type  1   force =    -0.00000535   -0.00005602   -0.00347477
     atom    5 type  1   force =     0.00008253   -0.00002094   -0.00345142
     atom    6 type  1   force =    -0.00012061   -0.00009107   -0.00406948
     atom    7 type  1   force =    -0.00001351   -0.00009325   -0.00358724
     atom    8 type  1   force =     0.00000922   -0.00018832   -0.00351223
     atom    9 type  1   force =    -0.00005414   -0.00003959   -0.00345088
     atom   10 type  1   force =     0.00002082   -0.00002690    0.00346623
     atom   11 type  1   force =    -0.00017574   -0.00022973    0.00384197
     atom   12 type  1   force =     0.00008493   -0.00023373    0.00425469
     atom   13 type  1   force =    -0.00021542    0.00025964    0.00341334
     atom   14 type  1   force =    -0.00006531    0.00017328    0.00387980
     atom   15 type  1   force =     0.00030563    0.00015154    0.00415211
     atom   16 type  1   force =    -0.00021582    0.00018418    0.00352294
     atom   17 type  1   force =     0.00010454    0.00030229    0.00370425
     atom   18 type  1   force =     0.00003463    0.00002052    0.00396192
     atom   19 type  1   force =    -0.00006505    0.00004397   -0.00035083
     atom   20 type  1   force =    -0.00005595   -0.00004500   -0.00042526
     atom   21 type  1   force =     0.00000347   -0.00001685   -0.00038033
     atom   22 type  1   force =    -0.00002463    0.00002073   -0.00027699
     atom   23 type  1   force =     0.00000401    0.00002478    0.00031203
     atom   24 type  1   force =    -0.00005674   -0.00002411   -0.00035819
     atom   25 type  1   force =    -0.00005804    0.00002813   -0.00030132
     atom   26 type  1   force =     0.00002077    0.00003117   -0.00035544
     atom   27 type  1   force =    -0.00008870    0.00008139   -0.00028408
     atom   28 type  1   force =    -0.00002596   -0.00008899   -0.00007405
     atom   29 type  1   force =     0.00004015   -0.00000290    0.00020718
     atom   30 type  1   force =    -0.00000332   -0.00001324   -0.00001854
     atom   31 type  1   force =    -0.00002829    0.00002839    0.00010690
     atom   32 type  1   force =    -0.00001442   -0.00005816   -0.00019200
     atom   33 type  1   force =     0.00001856   -0.00001046    0.00027331
     atom   34 type  1   force =     0.00012012   -0.00002543   -0.00000601
     atom   35 type  1   force =    -0.00011097   -0.00003122   -0.00010879
     atom   36 type  1   force =    -0.00000453   -0.00001121    0.00003161
     atom   37 type  2   force =    -0.00078917    0.00023452    0.00068506
     atom   38 type  2   force =    -0.00180554   -0.00275211    0.00147918
     atom   39 type  3   force =     0.00039754   -0.00025384   -0.00006007
     atom   40 type  4   force =    -0.00008865   -0.00022437   -0.00011779
     atom   41 type  4   force =     0.00056276   -0.00045547   -0.00019583
     atom   42 type  4   force =    -0.00023285    0.00031073    0.00041072
     atom   43 type  4   force =     0.00258266    0.00303545   -0.00237144

     Total force =     0.006178     Total SCF correction =     0.001429
     SCF correction compared to forces is large: reduce conv_thr to get better values

[...]

     negative rho (up, down):  1.261E-02 0.000E+00

     negative rho (up, down):  1.261E-02 0.000E+00
 BEEFens 2000 ensemble energies
             -0.609498519579906E+02
             -0.361791756997908E+01
             -0.158833452586254E+02
              0.431490208745630E+02
             -0.222273937881771E+02
             -0.206060355984631E+02
             -0.354523823762473E+02
             -0.869234611136250E+02
             -0.466833375836390E+02
             -0.474615371222146E+02
             -0.370833530591736E+02
              0.231783493318160E+01
              0.406220898513058E+01
              0.761915920305012E+01
              0.267040660890956E+01
              0.477003412267443E+02
             -0.209785890991397E+02
             -0.230630217540871E+02
              0.193580223576149E+02
             -0.112900350918554E+03
              0.538913719322437E+02
             -0.290711307851310E+02
             -0.337224065694691E+01
             -0.114717984979256E+02
             -0.881634957157189E+01
             -0.464787923167611E+01
              0.886795181158820E+02
             -0.188153321481982E+02
             -0.903705340998818E+01
             -0.520664533743263E+02
              0.818565702647622E+02
             -0.187521853902348E+02
             -0.376632425840631E+02
              0.250106615367128E+02
             -0.286653630629496E+01
              0.165080698958118E+02
             -0.486047072824914E+01
              0.108304072059980E+02
              0.289768984958175E+02
             -0.103718232680556E+03
              0.561068441496037E+02
              0.142935794051779E+02
             -0.177716546031593E+01
             -0.362804189333191E+02
              0.123689255949603E+02
             -0.147884210977043E+02
              0.400456142717902E+02
              0.366452436692059E+02
             -0.309077477459426E+02
             -0.276232187300516E+02
             -0.329509300308260E+02
             -0.353839094053403E+02
              0.137238359908759E+02
             -0.493110226759468E+02
              0.116399923585152E+02
              0.625891257061936E+02
              0.638628430696186E+02
              0.357591095915944E+02
              0.154908404138744E+02
              0.272040017125703E+02
[...]
             -0.709464702984169E+02
             -0.844836598268557E+00
             -0.246619034051349E+01
             -0.886719166755120E+01
             -0.181261952030616E+01
             -0.655785104394296E+02
             -0.211111693591299E+02
              0.545061970764359E+01
              0.905877125776829E+01
              0.471037118351835E+02
             -0.399388633175318E+02
              0.659797262262413E+02
             -0.426995812305847E+02
              0.211603627576610E+02
              0.352087752816217E+02

 BEEF-vdW xc energy contributions
           1 :   -785.872076016199
           2 :    721.514597235658
           3 :   -610.402094508216
           4 :    480.005433492983
           5 :   -357.874904942798
           6 :    263.661095626167
           7 :   -204.840965005684
           8 :    176.808292335423
           9 :   -166.899401799353
          10 :    160.506680439920
          11 :   -146.820221972413
          12 :    122.039115073457
          13 :   -89.2177700414964
          14 :    55.3695873916600
          15 :   -27.5027509445886
          16 :    9.37123346423584
          17 :  -0.190246130979745
          18 :   -4.42305930265422
          19 :    9.97478890282912
          20 :   -20.3857881410839
          21 :    36.2939397275875
          22 :   -55.0450672643173
          23 :    72.2077960118168
          24 :   -83.7872916870064
          25 :    88.0495287255654
          26 :   -86.1512821840371
          27 :    81.3794574297592
          28 :   -77.4609307379487
          29 :    76.7932881484912
          30 :   -79.4338269438003
          31 :   -86.2076821904576
          32 :   -65.9689415873773

     Writing output data file ./pwscf.save/

     General routines

     Parallel routines

   This run was terminated on:  20:21:22  20May2022

   JOB DONE.