     Program PWSCF v.6.7MaX starts on 26Sep2022 at 22: 7:17

     Reading input from ch3chch2-bi-ensemble.in
Warning: card &CELL ignored
Warning: card / ignored

     Current dimensions of program PWSCF are:
     Max number of different atomic species (ntypx) = 10
     Max number of k-points (npk) =  40000
     Max angular momentum in pseudopotentials (lmaxx) =  3
     file Pt.pbe-n-kjpaw_psl.1.0.0.UPF: wavefunction(s)  6S 5D renormalized
     file C.pbe-n-kjpaw_psl.1.0.0.UPF: wavefunction(s)  2S 2P renormalized
     file H.pbe-kjpaw_psl.1.0.0.UPF: wavefunction(s)  1S renormalized

     IMPORTANT: XC functional enforced from input :
     Exchange-correlation= BEEF-VDW
                           (   1   4  43  14   2   0   0)
     Any further DFT definition will be discarded
     Please, verify this is what you really want

     Subspace diagonalization in iterative solution of the eigenvalue problem:
     a serial algorithm will be used

     bravais-lattice index     =            0
     lattice parameter (alat)  =      16.0108  a.u.
     unit-cell volume          =   11662.4169 (a.u.)^3
     number of atoms/cell      =           45
     number of atomic types    =            3
     number of electrons       =       378.00
     number of Kohn-Sham states=          227
     kinetic-energy cutoff     =      60.0000  Ry
     charge density cutoff     =     240.0000  Ry
     scf convergence threshold =      1.0E-06
     mixing beta               =       0.7000
     number of iterations used =            8  local-TF  mixing
     Exchange-correlation= BEEF-VDW
                           (   1   4  43  14   2   0   0)

     celldm(1)=  16.010806  celldm(2)=   0.000000  celldm(3)=   0.000000
     celldm(4)=   0.000000  celldm(5)=   0.000000  celldm(6)=   0.000000

     crystal axes: (cart. coord. in units of alat)
               a(1) = (   1.000000   0.000000   0.000000 )
               a(2) = (   0.500000   0.866025   0.000000 )
               a(3) = (   0.000000   0.000000   3.281092 )

     reciprocal axes: (cart. coord. in units 2 pi/alat)
               b(1) = (  1.000000 -0.577350  0.000000 )
               b(2) = (  0.000000  1.154701  0.000000 )
               b(3) = (  0.000000  0.000000  0.304777 )

     PseudoPot. # 1 for Pt read from file:
     /users/bkreitz1/quantum-espresso/potentials/Pt.pbe-n-kjpaw_psl.1.0.0.UPF
     MD5 check sum: 04dc8a03c51ece93fc7b5889c2958091
     Pseudo is Projector augmented-wave + core cor, Zval = 10.0
     Generated using 'atomic' code by A. Dal Corso  v.6.7MaX
     Shape of augmentation charge: PSQ
     Using radial grid of 1277 points,  6 beta functions with:
                l(1) =   0
                l(2) =   0
                l(3) =   1
                l(4) =   1
                l(5) =   2
                l(6) =   2
     Q(r) pseudized with 0 coefficients

     PseudoPot. # 2 for C  read from file:
     /users/bkreitz1/quantum-espresso/potentials/C.pbe-n-kjpaw_psl.1.0.0.UPF
     MD5 check sum: a169b0ebad56f5ec0d79c4633f80bf22
     Pseudo is Projector augmented-wave + core cor, Zval =  4.0
     Generated using 'atomic' code by A. Dal Corso  v.6.7MaX
     Shape of augmentation charge: PSQ
     Using radial grid of 1073 points,  4 beta functions with:
                l(1) =   0
                l(2) =   0
                l(3) =   1
                l(4) =   1
     Q(r) pseudized with 0 coefficients

     PseudoPot. # 3 for H  read from file:
     /users/bkreitz1/quantum-espresso/potentials/H.pbe-kjpaw_psl.1.0.0.UPF
     MD5 check sum: ae98473e6dc62675f0d0baffdab24f65
     Pseudo is Projector augmented-wave, Zval =  1.0
     Generated using 'atomic' code by A. Dal Corso  v.6.7MaX
     Shape of augmentation charge: PSQ
     Using radial grid of  929 points,  2 beta functions with:
                l(1) =   0
                l(2) =   0
     Q(r) pseudized with 0 coefficients

     atomic species   valence    mass     pseudopotential
        Pt            10.00   195.08400     Pt( 1.00)
        C              4.00    12.01100     C ( 1.00)
        H              1.00     1.00800     H ( 1.00)

     No symmetry found

   Cartesian axes

     site n.     atom                  positions (alat units)
         1           Pt  tau(   1) = (   0.0000000   0.0000000   1.0032395  )
         2           Pt  tau(   2) = (   0.3333333   0.0000000   1.0032395  )
         3           Pt  tau(   3) = (   0.6666667   0.0000000   1.0032395  )
         4           Pt  tau(   4) = (   0.1666667   0.2886751   1.0032395  )
         5           Pt  tau(   5) = (   0.5000000   0.2886751   1.0032395  )
         6           Pt  tau(   6) = (   0.8333333   0.2886751   1.0032395  )
         7           Pt  tau(   7) = (   0.3333333   0.5773503   1.0032395  )
         8           Pt  tau(   8) = (   0.6666667   0.5773503   1.0032395  )
         9           Pt  tau(   9) = (   1.0000000   0.5773503   1.0032395  )
        10           Pt  tau(  10) = (   0.1666667   0.0962250   1.2754050  )
        11           Pt  tau(  11) = (   0.5000000   0.0962250   1.2754050  )
        12           Pt  tau(  12) = (   0.8333333   0.0962250   1.2754050  )
        13           Pt  tau(  13) = (   0.3333333   0.3849002   1.2754050  )
        14           Pt  tau(  14) = (   0.6666667   0.3849002   1.2754050  )
        15           Pt  tau(  15) = (   1.0000000   0.3849002   1.2754050  )
        16           Pt  tau(  16) = (   0.5000000   0.6735753   1.2754050  )
        17           Pt  tau(  17) = (   0.8333333   0.6735753   1.2754050  )
        18           Pt  tau(  18) = (   1.1666667   0.6735753   1.2754050  )
        19           Pt  tau(  19) = (  -0.0028401   0.1937330   1.5501040  )
        20           Pt  tau(  20) = (   0.3323674   0.1918670   1.5429906  )
        21           Pt  tau(  21) = (   0.6683835   0.1937877   1.5478647  )
        22           Pt  tau(  22) = (   0.1678311   0.4806615   1.5433129  )
        23           Pt  tau(  23) = (   0.5024448   0.4819933   1.5481674  )
        24           Pt  tau(  24) = (   0.8332318   0.4812619   1.5475382  )
        25           Pt  tau(  25) = (   0.3339244   0.7702292   1.5452611  )
        26           Pt  tau(  26) = (   0.6663721   0.7669026   1.5500851  )
        27           Pt  tau(  27) = (   1.0004021   0.7710457   1.5439144  )
        28           Pt  tau(  28) = (   0.0001768  -0.0002539   1.8217522  )
        29           Pt  tau(  29) = (   0.3327453  -0.0004723   1.8200091  )
        30           Pt  tau(  30) = (   0.6674292   0.0006890   1.8202015  )
        31           Pt  tau(  31) = (   0.1663781   0.2882001   1.8196207  )
        32           Pt  tau(  32) = (   0.4963307   0.2863133   1.8163340  )
        33           Pt  tau(  33) = (   0.8314923   0.2925045   1.8416912  )
        34           Pt  tau(  34) = (   0.3339300   0.5777639   1.8185741  )
        35           Pt  tau(  35) = (   0.6691998   0.5742994   1.8437088  )
        36           Pt  tau(  36) = (   1.0035832   0.5794249   1.8150460  )
        37           C   tau(  37) = (   0.5627196   0.5247341   2.1821048  )
        38           C   tau(  38) = (   0.7139083   0.5155571   2.0859297  )
        39           C   tau(  39) = (   0.7935247   0.3583479   2.0806524  )
        40           H   tau(  40) = (   0.5060421   0.6398330   2.1713641  )
        41           H   tau(  41) = (   0.4778952   0.4338695   2.1478853  )
        42           H   tau(  42) = (   0.5920773   0.5066911   2.3071471  )
        43           H   tau(  43) = (   0.7961432   0.6100308   2.1165218  )
        44           H   tau(  44) = (   0.9133913   0.3586132   2.1277266  )
        45           H   tau(  45) = (   0.7226858   0.2624790   2.1304265  )

     number of k points=    13  Marzari-Vanderbilt smearing, width (Ry)=  0.0200
                       cart. coord. in units 2pi/alat
        k(    1) = (   0.0000000   0.0000000   0.0000000), wk =   0.0800000
        k(    2) = (   0.0000000   0.2309401   0.0000000), wk =   0.1600000
        k(    3) = (   0.0000000   0.4618802   0.0000000), wk =   0.1600000
        k(    4) = (   0.2000000  -0.1154701   0.0000000), wk =   0.1600000
        k(    5) = (   0.2000000   0.1154701   0.0000000), wk =   0.1600000
        k(    6) = (   0.2000000   0.3464102   0.0000000), wk =   0.1600000
        k(    7) = (   0.2000000  -0.5773503   0.0000000), wk =   0.1600000
        k(    8) = (   0.2000000  -0.3464102   0.0000000), wk =   0.1600000
        k(    9) = (   0.4000000  -0.2309401   0.0000000), wk =   0.1600000
        k(   10) = (   0.4000000  -0.0000000   0.0000000), wk =   0.1600000
        k(   11) = (   0.4000000   0.2309401   0.0000000), wk =   0.1600000
        k(   12) = (   0.4000000  -0.6928203   0.0000000), wk =   0.1600000
        k(   13) = (   0.4000000  -0.4618802   0.0000000), wk =   0.1600000

     Check: negative core charge=   -0.000002

     Initial potential from superposition of free atoms

     starting charge  377.99371, renormalised to  378.00000

     negative rho (up, down):  1.113E-02 0.000E+00

     %%%%%%%%%%%%%%%%%%%%%%%%%%%%%%%%%%%%%%%%%%%%%%%%%%%%%%%%%%%%%%%%%%%%%%%%
     %                                                                      %
     % You are using vdW-DF, which was implemented by the Thonhauser group. %
     % Please cite the following two papers that made this development      %
     % possible and the two reviews that describe the various versions:     %
     %                                                                      %
     %   T. Thonhauser et al., PRL 115, 136402 (2015).                      %
     %   T. Thonhauser et al., PRB 76, 125112 (2007).                       %
     %   K. Berland et al., Rep. Prog. Phys. 78, 066501 (2015).             %
     %   D.C. Langreth et al., J. Phys.: Condens. Matter 21, 084203 (2009). %
     %                                                                      %
     %                                                                      %
     % If you are calculating the stress with vdW-DF, please also cite:     %
     %                                                                      %
     %   R. Sabatini et al., J. Phys.: Condens. Matter 24, 424209 (2012).   %
     %                                                                      %
     %%%%%%%%%%%%%%%%%%%%%%%%%%%%%%%%%%%%%%%%%%%%%%%%%%%%%%%%%%%%%%%%%%%%%%%%

     Starting wfcs are  342 randomized atomic wfcs
     Checking if some PAW data can be deallocated...

     Self-consistent Calculation

     iteration #  1     ecut=    60.00 Ry     beta= 0.70
     Davidson diagonalization with overlap
     ethr =  1.00E-02,  avg # of iterations =  2.6

     Threshold (ethr) on eigenvalues was too large:
     Diagonalizing with lowered threshold

     Davidson diagonalization with overlap
     ethr =  8.78E-04,  avg # of iterations =  2.5

[...]

     total energy              =  -27818.41225849 Ry
     estimated scf accuracy    <       3.57601175 Ry

[...]

     iteration #  4     ecut=    60.00 Ry     beta= 0.70
     Davidson diagonalization with overlap
     c_bands:  1 eigenvalues not converged
     ethr =  1.44E-04,  avg # of iterations = 11.9

[...]

     iteration # 10     ecut=    60.00 Ry     beta= 0.70
     Davidson diagonalization with overlap
     c_bands:  1 eigenvalues not converged
     ethr =  7.65E-07,  avg # of iterations = 10.0

[...]

     total energy              =  -27818.64731343 Ry
     estimated scf accuracy    <       0.00000138 Ry

     iteration # 21     ecut=    60.00 Ry     beta= 0.70
     Davidson diagonalization with overlap
     ethr =  3.64E-10,  avg # of iterations =  4.1

[...]

     End of self-consistent calculation

          k = 0.0000 0.0000 0.0000 ( 91569 PWs)   bands (ev):

   -13.2022 -10.5576  -7.8052  -6.9168  -5.6656  -5.1078  -4.6435  -4.5242
    -4.5159  -4.4998  -4.4967  -4.4751  -4.4690  -4.4487  -4.1235  -3.9836
    -3.9575  -3.9512  -3.9368  -3.9340  -3.9041  -3.8278  -3.4967  -3.4844
    -3.4809  -3.4775  -3.4710  -3.4349  -3.2989  -3.2711  -3.2605  -3.2538
    -3.2503  -3.2072  -3.0919  -3.0596  -3.0479  -3.0429  -3.0332  -3.0306
    -3.0058  -2.9909  -2.9744  -2.9681  -2.9619  -2.9379  -2.8059  -2.4800
    -2.4334  -2.4189  -2.4132  -2.3863  -2.3658  -2.3376  -2.3344  -2.3161
    -2.2714  -2.2179  -2.1860  -2.1744  -2.1355  -2.0977  -1.8979  -1.6752
    -1.6311  -1.6031  -1.5869  -1.5777  -1.5612  -1.5238  -1.4240  -1.4190
    -1.4075  -1.4040  -1.3900  -1.3887  -1.3832  -1.3578  -1.3526  -1.3424
    -1.3251  -1.3222  -1.2938  -1.2793  -1.2581  -1.2378  -1.2059  -1.1937
    -1.1726  -1.1639  -1.0240  -1.0027  -0.9866  -0.9782  -0.9539  -0.9435
    -0.9232  -0.9172  -0.9083  -0.8842  -0.8624  -0.8336  -0.8261  -0.7595
    -0.7574  -0.7196  -0.7192  -0.6964  -0.6591  -0.5868  -0.5642  -0.5503
    -0.5258  -0.5121  -0.5091  -0.2169  -0.1623  -0.1136  -0.0966  -0.0838
    -0.0641  -0.0418  -0.0345  -0.0279   0.0005   0.0583   0.0787   0.0896
     0.1021   0.1182   0.1914   0.2129   0.2448   0.2571   0.3059   0.3656
     0.3744   0.3937   0.4380   0.4401   0.4495   0.4717   0.5163   0.6597
     0.6864   0.6970   0.7064   0.7125   0.7168   0.7496   0.7623   0.9281
     0.9416   0.9421   0.9531   1.0031   1.0086   1.0974   1.1141   1.1184
     1.1243   1.1337   1.1395   1.1466   1.1585   1.1651   1.1761   1.1833
     1.2286   1.2550   1.2618   1.2761   1.2988   1.3123   1.3177   1.3688
     1.3791   1.3818   1.3959   1.3996   1.4096   1.4350   1.4379   1.4535
     1.5027   1.5107   1.5147   1.5361   1.5406   1.5511   1.5616   1.5997
     1.6286   1.6324   1.6616   1.6621   1.8192   1.8303   1.9141   1.9289
     1.9466   1.9641   1.9718   1.9775   2.2012   2.4949   2.7517   2.8139
     2.8374   2.8491   2.8655   4.1514   4.2023   5.0753   5.1107   5.1354
     5.1517   5.7106   5.9456   6.1530   6.5542   6.7581   6.7872   6.7889
     6.8152   6.8166   6.8349

[...]

          k = 0.4000-0.4619 0.0000 ( 91502 PWs)   bands (ev):

   -13.2018 -10.5587  -7.8054  -5.9506  -5.9400  -5.3374  -5.1152  -4.7712
    -4.7169  -4.3144  -4.1684  -4.0860  -4.0350  -3.9956  -3.9224  -3.8918
    -3.8444  -3.7797  -3.7654  -3.6830  -3.6725  -3.6615  -3.6289  -3.6171
    -3.5863  -3.5783  -3.4626  -3.4532  -3.4417  -3.3986  -3.3925  -3.3496
    -3.2597  -3.1979  -3.1710  -3.1166  -3.0731  -3.0498  -3.0307  -3.0118
    -2.9876  -2.9330  -2.8589  -2.8094  -2.7971  -2.6317  -2.6110  -2.5573
    -2.5202  -2.4882  -2.4298  -2.4111  -2.3288  -2.3175  -2.2819  -2.2361
    -2.2126  -2.1915  -2.1539  -2.1357  -2.1094  -2.0435  -2.0131  -1.9923
    -1.9837  -1.9544  -1.9501  -1.9378  -1.8930  -1.8701  -1.7934  -1.7537
    -1.7207  -1.6842  -1.6517  -1.5968  -1.5868  -1.5403  -1.5182  -1.4755
    -1.4604  -1.4246  -1.3980  -1.3693  -1.3553  -1.3426  -1.3225  -1.2933
    -1.2481  -1.2158  -1.1377  -1.1255  -1.1027  -1.1014  -1.0505  -1.0186
    -0.9662  -0.9207  -0.9097  -0.8920  -0.8768  -0.8614  -0.8263  -0.8145
    -0.7973  -0.7901  -0.7741  -0.7390  -0.7277  -0.7076  -0.6844  -0.6777
    -0.6699  -0.6492  -0.6302  -0.6057  -0.5656  -0.5311  -0.3733  -0.3425
    -0.2806  -0.2692  -0.2157  -0.1803  -0.1596  -0.1215  -0.1052  -0.0809
    -0.0685  -0.0441  -0.0065   0.0344   0.0630   0.0867   0.1257   0.1557
     0.1985   0.2130   0.2402   0.3516   0.3855   0.4188   0.4662   0.4996
     0.5084   0.5372   0.5797   0.5962   0.6252   0.6406   0.6632   0.6964
     0.7122   0.7419   0.7853   0.8189   0.8502   0.8733   0.8882   0.9196
     0.9285   0.9970   1.0409   1.0807   1.1719   1.1997   1.2852   1.3148
     1.3411   1.3668   1.4260   1.4677   1.5023   1.5172   1.6036   1.6351
     1.6392   1.6649   1.6895   1.7015   1.7229   1.7516   1.8158   1.8405
     1.8526   1.8709   1.8861   1.9025   1.9098   1.9805   2.0662   2.0854
     2.1122   2.1291   2.1402   2.1816   2.1986   2.3166   2.4329   2.7989
     3.2118   3.2913   3.2949   3.5196   3.6333   3.6586   3.6780   3.8271
     4.2092   4.2965   4.3316   4.4568   4.7501   4.8453   4.8944   4.9215
     4.9911   5.1179   5.2107   5.3248   5.4381   5.6904   5.7840   5.9389
     6.2979   6.3869   6.4131

     the Fermi energy is     1.8956 ev

!    total energy              =  -27818.64731316 Ry

     total all-electron energy =  -1326878.704999 Ry
     estimated scf accuracy    <       0.00000034 Ry
     smearing contrib. (-TS)   =       0.00243480 Ry
     internal energy E=F+TS    =  -27818.64974796 Ry

     The total energy is F=E-TS. E is the sum of the following terms:
     one-electron contribution =  -28845.70749393 Ry
     hartree contribution      =   14727.97638046 Ry
     xc contribution           =    -909.09971290 Ry
     ewald contribution        =   12701.79270588 Ry
     one-center paw contrib.   =  -25493.61162747 Ry

     convergence has been achieved in  21 iterations

[...]

     Forces acting on atoms (cartesian axes, Ry/au):

     atom    1 type  1   force =     0.00074643    0.00052445   -0.00445317
     atom    2 type  1   force =     0.00020509   -0.00089378   -0.00771216
     atom    3 type  1   force =    -0.00069505   -0.00016771   -0.00526310
     atom    4 type  1   force =    -0.00074417    0.00034652   -0.00774993
     atom    5 type  1   force =    -0.00035550   -0.00019198   -0.00449726
     atom    6 type  1   force =     0.00072218   -0.00018457   -0.00548913
     atom    7 type  1   force =    -0.00035212   -0.00048083   -0.00512564
     atom    8 type  1   force =     0.00014901    0.00058264   -0.00539380
     atom    9 type  1   force =    -0.00020276    0.00000199   -0.00557289
     atom   10 type  1   force =    -0.00088021   -0.00054861    0.00254385
     atom   11 type  1   force =    -0.00058406   -0.00001853    0.00071397
     atom   12 type  1   force =     0.00131249    0.00191846    0.01112626
     atom   13 type  1   force =     0.00027144   -0.00044906    0.00018315
     atom   14 type  1   force =     0.00032643    0.00038214    0.01278047
     atom   15 type  1   force =     0.00047962   -0.00314186    0.00492650
     atom   16 type  1   force =     0.00230976   -0.00006692    0.01100659
     atom   17 type  1   force =    -0.00225638    0.00226319    0.00541583
     atom   18 type  1   force =     0.00049760    0.00055461    0.00228509
     atom   19 type  1   force =    -0.00022088   -0.00003852   -0.00000820
     atom   20 type  1   force =    -0.00005474    0.00007619    0.00019052
     atom   21 type  1   force =     0.00063207    0.00006217    0.00026309
     atom   22 type  1   force =    -0.00028874    0.00022732    0.00038560
     atom   23 type  1   force =     0.00013186    0.00033322    0.00013011
     atom   24 type  1   force =    -0.00016661   -0.00042091    0.00062198
     atom   25 type  1   force =    -0.00015647    0.00007176    0.00012645
     atom   26 type  1   force =    -0.00013115    0.00009090   -0.00001954
     atom   27 type  1   force =     0.00007296   -0.00035225    0.00006664
     atom   28 type  1   force =    -0.00020019   -0.00023000   -0.00022654
     atom   29 type  1   force =     0.00022163    0.00053181   -0.00005602
     atom   30 type  1   force =    -0.00033766   -0.00016519   -0.00054023
     atom   31 type  1   force =     0.00018688    0.00016941   -0.00023076
     atom   32 type  1   force =    -0.00012215   -0.00010234    0.00003263
     atom   33 type  1   force =    -0.00007243   -0.00045912    0.00099269
     atom   34 type  1   force =    -0.00028802   -0.00006222   -0.00049638
     atom   35 type  1   force =    -0.00019509    0.00034384   -0.00007633
     atom   36 type  1   force =    -0.00016471   -0.00034003   -0.00018289
     atom   37 type  2   force =    -0.00005083    0.00036121    0.00035905
     atom   38 type  2   force =    -0.00076771    0.00054724    0.00259675
     atom   39 type  2   force =    -0.00194837   -0.00382589   -0.00040289
     atom   40 type  3   force =     0.00012543   -0.00030116    0.00012936
     atom   41 type  3   force =     0.00058479   -0.00000439    0.00029731
     atom   42 type  3   force =     0.00044528   -0.00029681   -0.00027842
     atom   43 type  3   force =    -0.00050887   -0.00030897    0.00005798
     atom   44 type  3   force =     0.00001725    0.00048996   -0.00041491
     atom   45 type  3   force =     0.00230668    0.00317266   -0.00304171

     Total force =     0.007585     Total SCF correction =     0.001886
     SCF correction compared to forces is large: reduce conv_thr to get better values

[...]

     negative rho (up, down):  1.254E-02 0.000E+00

     negative rho (up, down):  1.254E-02 0.000E+00
 BEEFens 2000 ensemble energies
             -0.608905777911392E+02
             -0.361598016126081E+01
             -0.158691390041984E+02
              0.430646970840180E+02
             -0.221763953278492E+02
             -0.205702951332333E+02
             -0.353889161108432E+02
             -0.868011455398972E+02
             -0.465901484153344E+02
             -0.473388887760137E+02
             -0.370370298156301E+02
              0.231210733781064E+01
              0.409549484558752E+01
              0.757915640411477E+01
              0.266599429562433E+01
              0.476379734574141E+02
             -0.209248679879242E+02
             -0.230212130306120E+02
              0.193826552045858E+02
             -0.112720382625082E+03
              0.537989490647054E+02
             -0.290166111192082E+02
             -0.335639135121316E+01
             -0.114226045607218E+02
             -0.880506157046591E+01
             -0.463694963059831E+01
              0.885383865888252E+02
             -0.188034051532399E+02
             -0.902259304212419E+01
             -0.520258339324563E+02
              0.817168725949023E+02
             -0.187076931454040E+02
             -0.376146342981374E+02
              0.249593939418921E+02
             -0.284331007489334E+01
              0.165224758390611E+02
             -0.483499682040087E+01
              0.107868062004187E+02
              0.289895133662302E+02
             -0.103548356482220E+03
              0.560075211279108E+02
              0.142854557781605E+02
             -0.177850927854007E+01
             -0.362290091439053E+02
              0.123574104043845E+02
             -0.147377827565480E+02
              0.400000205376801E+02
              0.365775747879184E+02
             -0.308358955951824E+02
             -0.276051353509027E+02
             -0.329370326107386E+02
             -0.353399895389362E+02
              0.137400579662514E+02
             -0.492431266683922E+02
              0.116147119680404E+02
              0.625076858118331E+02
              0.637840374665840E+02
              0.356731498980919E+02
              0.154522165371133E+02
              0.271755176803281E+02
[...]
             -0.708493670971969E+02
             -0.859110936560683E+00
             -0.247306094336955E+01
             -0.885869864968299E+01
             -0.179056566998548E+01
             -0.654649665678841E+02
             -0.210553018369336E+02
              0.545408690951080E+01
              0.905807634142278E+01
              0.470409884317796E+02
             -0.399087558014612E+02
              0.658471703538546E+02
             -0.426342136219728E+02
              0.211409195859183E+02
              0.351647234664510E+02

 BEEF-vdW xc energy contributions
           1 :   -784.819949302692
           2 :    720.774148676313
           3 :   -609.937800776027
           4 :    479.527186099676
           5 :   -357.144249580369
           6 :    262.663635069292
           7 :   -203.754911809063
           8 :    175.868457787088
           9 :   -166.265847833570
          10 :    160.199037011833
          11 :   -146.732163032400
          12 :    122.012517865930
          13 :   -89.1294053982519
          14 :    55.1851057291981
          15 :   -27.2710352144112
          16 :    9.17154561580571
          17 :  -7.370531555670823E-002
          18 :   -4.46020502320562
          19 :    9.97451969306280
          20 :   -20.3897067868136
          21 :    36.3161760185485
          22 :   -55.0716890858693
          23 :    72.2154014020192
          24 :   -83.7638092861932
          25 :    88.0041824137902
          26 :   -86.1056592593497
          27 :    81.3461646767256
          28 :   -77.4292973021782
          29 :    76.7321452617948
          30 :   -79.3045038667627
          31 :   -86.1958737434686
          32 :   -66.0239973856145

     Writing output data file ./pwscf.save/

     General routines

     Parallel routines

   This run was terminated on:   2:38:59  27Sep2022

   JOB DONE.