     Program PWSCF v.6.7MaX starts on 26Sep2022 at 14: 9: 4

     Reading input from ch3oh-ensemble.in
Warning: card &CELL ignored
Warning: card / ignored

     Current dimensions of program PWSCF are:
     Max number of different atomic species (ntypx) = 10
     Max number of k-points (npk) =  40000
     Max angular momentum in pseudopotentials (lmaxx) =  3
     file Pt.pbe-n-kjpaw_psl.1.0.0.UPF: wavefunction(s)  6S 5D renormalized
     file O.pbe-nl-kjpaw_psl.1.0.0.UPF: wavefunction(s)  2S 2P renormalized
     file C.pbe-n-kjpaw_psl.1.0.0.UPF: wavefunction(s)  2S 2P renormalized
     file H.pbe-kjpaw_psl.1.0.0.UPF: wavefunction(s)  1S renormalized

     IMPORTANT: XC functional enforced from input :
     Exchange-correlation= BEEF-VDW
                           (   1   4  43  14   2   0   0)
     Any further DFT definition will be discarded
     Please, verify this is what you really want

     Subspace diagonalization in iterative solution of the eigenvalue problem:
     a serial algorithm will be used

     bravais-lattice index     =            0
     lattice parameter (alat)  =      16.0349  a.u.
     unit-cell volume          =   11937.2059 (a.u.)^3
     number of atoms/cell      =           42
     number of atomic types    =            4
     number of electrons       =       374.00
     number of Kohn-Sham states=          224
     kinetic-energy cutoff     =      60.0000  Ry
     charge density cutoff     =     240.0000  Ry
     scf convergence threshold =      1.0E-06
     mixing beta               =       0.7000
     number of iterations used =            8  local-TF  mixing
     Exchange-correlation= BEEF-VDW
                           (   1   4  43  14   2   0   0)

     celldm(1)=  16.034858  celldm(2)=   0.000000  celldm(3)=   0.000000
     celldm(4)=   0.000000  celldm(5)=   0.000000  celldm(6)=   0.000000

     crystal axes: (cart. coord. in units of alat)
               a(1) = (   1.000000   0.000000   0.000000 )
               a(2) = (   0.500000   0.866025   0.000000 )
               a(3) = (   0.000000   0.000000   3.343310 )

     reciprocal axes: (cart. coord. in units 2 pi/alat)
               b(1) = (  1.000000 -0.577350  0.000000 )
               b(2) = (  0.000000  1.154701  0.000000 )
               b(3) = (  0.000000  0.000000  0.299105 )

     PseudoPot. # 1 for Pt read from file:
     /users/bkreitz1/quantum-espresso/potentials/Pt.pbe-n-kjpaw_psl.1.0.0.UPF
     MD5 check sum: 04dc8a03c51ece93fc7b5889c2958091
     Pseudo is Projector augmented-wave + core cor, Zval = 10.0
     Generated using 'atomic' code by A. Dal Corso  v.6.7MaX
     Shape of augmentation charge: PSQ
     Using radial grid of 1277 points,  6 beta functions with:
                l(1) =   0
                l(2) =   0
                l(3) =   1
                l(4) =   1
                l(5) =   2
                l(6) =   2
     Q(r) pseudized with 0 coefficients

     PseudoPot. # 2 for O  read from file:
     /users/bkreitz1/quantum-espresso/potentials/O.pbe-nl-kjpaw_psl.1.0.0.UPF
     MD5 check sum: eef08af8b58d9ec80f8fdb78829eb7cf
     Pseudo is Projector augmented-wave + core cor, Zval =  6.0
     Generated using 'atomic' code by A. Dal Corso  v.6.7MaX
     Shape of augmentation charge: PSQ
     Using radial grid of 1095 points,  4 beta functions with:
                l(1) =   0
                l(2) =   0
                l(3) =   1
                l(4) =   1
     Q(r) pseudized with 0 coefficients

     PseudoPot. # 3 for C  read from file:
     /users/bkreitz1/quantum-espresso/potentials/C.pbe-n-kjpaw_psl.1.0.0.UPF
     MD5 check sum: a169b0ebad56f5ec0d79c4633f80bf22
     Pseudo is Projector augmented-wave + core cor, Zval =  4.0
     Generated using 'atomic' code by A. Dal Corso  v.6.7MaX
     Shape of augmentation charge: PSQ
     Using radial grid of 1073 points,  4 beta functions with:
                l(1) =   0
                l(2) =   0
                l(3) =   1
                l(4) =   1
     Q(r) pseudized with 0 coefficients

     PseudoPot. # 4 for H  read from file:
     /users/bkreitz1/quantum-espresso/potentials/H.pbe-kjpaw_psl.1.0.0.UPF
     MD5 check sum: ae98473e6dc62675f0d0baffdab24f65
     Pseudo is Projector augmented-wave, Zval =  1.0
     Generated using 'atomic' code by A. Dal Corso  v.6.7MaX
     Shape of augmentation charge: PSQ
     Using radial grid of  929 points,  2 beta functions with:
                l(1) =   0
                l(2) =   0
     Q(r) pseudized with 0 coefficients

     atomic species   valence    mass     pseudopotential
        Pt            10.00   195.08400     Pt( 1.00)
        O              6.00    15.99900     O ( 1.00)
        C              4.00    12.01100     C ( 1.00)
        H              1.00     1.00800     H ( 1.00)

     No symmetry found

   Cartesian axes

     site n.     atom                  positions (alat units)
         1           Pt  tau(   1) = (   0.0000000   0.0000000   1.0017346  )
         2           Pt  tau(   2) = (   0.3333333   0.0000000   1.0017346  )
         3           Pt  tau(   3) = (   0.6666667   0.0000000   1.0017346  )
         4           Pt  tau(   4) = (   0.1666667   0.2886751   1.0017346  )
         5           Pt  tau(   5) = (   0.5000000   0.2886751   1.0017346  )
         6           Pt  tau(   6) = (   0.8333333   0.2886751   1.0017346  )
         7           Pt  tau(   7) = (   0.3333333   0.5773503   1.0017346  )
         8           Pt  tau(   8) = (   0.6666667   0.5773503   1.0017346  )
         9           Pt  tau(   9) = (   1.0000000   0.5773503   1.0017346  )
        10           Pt  tau(  10) = (   0.1666667   0.0962250   1.2739001  )
        11           Pt  tau(  11) = (   0.5000000   0.0962250   1.2739001  )
        12           Pt  tau(  12) = (   0.8333333   0.0962250   1.2739001  )
        13           Pt  tau(  13) = (   0.3333333   0.3849002   1.2739001  )
        14           Pt  tau(  14) = (   0.6666667   0.3849002   1.2739001  )
        15           Pt  tau(  15) = (   1.0000000   0.3849002   1.2739001  )
        16           Pt  tau(  16) = (   0.5000000   0.6735753   1.2739001  )
        17           Pt  tau(  17) = (   0.8333333   0.6735753   1.2739001  )
        18           Pt  tau(  18) = (   1.1666667   0.6735753   1.2739001  )
        19           Pt  tau(  19) = (  -0.0001041   0.1922402   1.5419097  )
        20           Pt  tau(  20) = (   0.3338269   0.1926462   1.5441120  )
        21           Pt  tau(  21) = (   0.6661272   0.1927679   1.5440536  )
        22           Pt  tau(  22) = (   0.1664253   0.4811595   1.5427006  )
        23           Pt  tau(  23) = (   0.5000937   0.4802253   1.5442713  )
        24           Pt  tau(  24) = (   0.8334817   0.4811853   1.5428918  )
        25           Pt  tau(  25) = (   0.3335227   0.7699311   1.5417585  )
        26           Pt  tau(  26) = (   0.6664810   0.7697814   1.5420060  )
        27           Pt  tau(  27) = (   0.9999543   0.7696175   1.5428828  )
        28           Pt  tau(  28) = (   0.0001798   0.0000462   1.8171867  )
        29           Pt  tau(  29) = (   0.3328438  -0.0011453   1.8169219  )
        30           Pt  tau(  30) = (   0.6673011  -0.0012344   1.8161675  )
        31           Pt  tau(  31) = (   0.1653696   0.2887878   1.8161163  )
        32           Pt  tau(  32) = (   0.5002539   0.2894812   1.8208482  )
        33           Pt  tau(  33) = (   0.8347673   0.2888598   1.8163336  )
        34           Pt  tau(  34) = (   0.3324951   0.5788644   1.8157265  )
        35           Pt  tau(  35) = (   0.6675887   0.5787521   1.8168108  )
        36           Pt  tau(  36) = (   1.0000340   0.5774426   1.8178194  )
        37           O   tau(  37) = (   0.5034940   0.2675153   2.1183002  )
        38           C   tau(  38) = (   0.4196004   0.3821262   2.2132877  )
        39           H   tau(  39) = (   0.4241110   0.3474847   2.3372643  )
        40           H   tau(  40) = (   0.4809877   0.4935505   2.1972665  )
        41           H   tau(  41) = (   0.2972821   0.3946890   2.1749150  )
        42           H   tau(  42) = (   0.4506554   0.1666333   2.1283703  )

     number of k points=    13  Marzari-Vanderbilt smearing, width (Ry)=  0.0200
                       cart. coord. in units 2pi/alat
        k(    1) = (   0.0000000   0.0000000   0.0000000), wk =   0.0800000
        k(    2) = (   0.0000000   0.2309401   0.0000000), wk =   0.1600000
        k(    3) = (   0.0000000   0.4618802   0.0000000), wk =   0.1600000
        k(    4) = (   0.2000000  -0.1154701   0.0000000), wk =   0.1600000
        k(    5) = (   0.2000000   0.1154701   0.0000000), wk =   0.1600000
        k(    6) = (   0.2000000   0.3464102   0.0000000), wk =   0.1600000
        k(    7) = (   0.2000000  -0.5773503   0.0000000), wk =   0.1600000
        k(    8) = (   0.2000000  -0.3464102   0.0000000), wk =   0.1600000
        k(    9) = (   0.4000000  -0.2309401   0.0000000), wk =   0.1600000
        k(   10) = (   0.4000000  -0.0000000   0.0000000), wk =   0.1600000
        k(   11) = (   0.4000000   0.2309401   0.0000000), wk =   0.1600000
        k(   12) = (   0.4000000  -0.6928203   0.0000000), wk =   0.1600000
        k(   13) = (   0.4000000  -0.4618802   0.0000000), wk =   0.1600000

     Check: negative core charge=   -0.000001

     Initial potential from superposition of free atoms

     starting charge  373.99381, renormalised to  374.00000

     negative rho (up, down):  1.240E-02 0.000E+00

     %%%%%%%%%%%%%%%%%%%%%%%%%%%%%%%%%%%%%%%%%%%%%%%%%%%%%%%%%%%%%%%%%%%%%%%%
     %                                                                      %
     % You are using vdW-DF, which was implemented by the Thonhauser group. %
     % Please cite the following two papers that made this development      %
     % possible and the two reviews that describe the various versions:     %
     %                                                                      %
     %   T. Thonhauser et al., PRL 115, 136402 (2015).                      %
     %   T. Thonhauser et al., PRB 76, 125112 (2007).                       %
     %   K. Berland et al., Rep. Prog. Phys. 78, 066501 (2015).             %
     %   D.C. Langreth et al., J. Phys.: Condens. Matter 21, 084203 (2009). %
     %                                                                      %
     %                                                                      %
     % If you are calculating the stress with vdW-DF, please also cite:     %
     %                                                                      %
     %   R. Sabatini et al., J. Phys.: Condens. Matter 24, 424209 (2012).   %
     %                                                                      %
     %%%%%%%%%%%%%%%%%%%%%%%%%%%%%%%%%%%%%%%%%%%%%%%%%%%%%%%%%%%%%%%%%%%%%%%%

     Starting wfcs are  336 randomized atomic wfcs
     Checking if some PAW data can be deallocated...

     Self-consistent Calculation

     iteration #  1     ecut=    60.00 Ry     beta= 0.70
     Davidson diagonalization with overlap
     ethr =  1.00E-02,  avg # of iterations =  2.0

     Threshold (ethr) on eigenvalues was too large:
     Diagonalizing with lowered threshold

     Davidson diagonalization with overlap
     ethr =  5.30E-04,  avg # of iterations =  4.0

[...]

     total energy              =  -27820.46218858 Ry
     estimated scf accuracy    <       2.18369550 Ry

[...]

     iteration #  3     ecut=    60.00 Ry     beta= 0.70
     Davidson diagonalization with overlap
     c_bands:  1 eigenvalues not converged
     ethr =  2.68E-04,  avg # of iterations =  6.5

[...]

     iteration # 14     ecut=    60.00 Ry     beta= 0.70
     Davidson diagonalization with overlap
     c_bands:  1 eigenvalues not converged
     ethr =  4.06E-08,  avg # of iterations =  3.4

[...]

     total energy              =  -27820.66417340 Ry
     estimated scf accuracy    <       0.00000198 Ry

     iteration # 21     ecut=    60.00 Ry     beta= 0.70
     Davidson diagonalization with overlap
     ethr =  5.30E-10,  avg # of iterations =  4.2

[...]

     End of self-consistent calculation

          k = 0.0000 0.0000 0.0000 ( 93769 PWs)   bands (ev):

   -19.8235 -10.9910  -7.1590  -6.5979  -5.8663  -4.9179  -4.7587  -4.7418
    -4.7397  -4.7391  -4.7359  -4.7261  -4.7255  -4.6711  -4.4868  -4.1834
    -4.1801  -4.1792  -4.1759  -4.1753  -4.1709  -3.7135  -3.7119  -3.7088
    -3.7018  -3.7013  -3.6995  -3.4956  -3.4914  -3.4902  -3.4894  -3.4893
    -3.4843  -3.2597  -3.2585  -3.2577  -3.2548  -3.2527  -3.2510  -3.2487
    -3.2483  -3.2418  -3.2407  -3.2241  -3.2117  -2.6665  -2.6460  -2.6443
    -2.6166  -2.6148  -2.5674  -2.5633  -2.5617  -2.5588  -2.5576  -2.5166
    -2.4176  -2.4061  -2.3211  -2.2880  -1.8229  -1.8196  -1.8150  -1.8147
    -1.8138  -1.8081  -1.7474  -1.6524  -1.6520  -1.6292  -1.6251  -1.6240
    -1.6188  -1.6113  -1.5959  -1.5922  -1.5893  -1.5856  -1.5832  -1.5744
    -1.5497  -1.5491  -1.4281  -1.4034  -1.4003  -1.3976  -1.3956  -1.3913
    -1.2464  -1.2361  -1.2360  -1.2311  -1.2298  -1.2245  -1.1504  -1.1489
    -1.1233  -1.0553  -1.0546  -1.0017  -0.9972  -0.9808  -0.9789  -0.9438
    -0.9378  -0.9340  -0.8841  -0.7816  -0.7799  -0.7754  -0.7752  -0.7711
    -0.7573  -0.6217  -0.2875  -0.2832  -0.2817  -0.2744  -0.2743  -0.2708
    -0.2308  -0.2123  -0.2057  -0.2049  -0.2034  -0.1859  -0.1333  -0.1255
     0.0193   0.0338   0.0340   0.0379   0.0565   0.0697   0.1710   0.1724
     0.1945   0.1948   0.2017   0.2020   0.4453   0.4471   0.4552   0.4559
     0.4606   0.4641   0.5314   0.5349   0.7081   0.7095   0.7113   0.7198
     0.7216   0.7452   0.8804   0.8811   0.8903   0.8913   0.8913   0.9024
     0.9208   0.9222   0.9251   0.9275   0.9340   0.9993   1.0584   1.0706
     1.0727   1.0756   1.0770   1.0869   1.0939   1.1065   1.1627   1.1644
     1.1878   1.1884   1.1901   1.1944   1.2042   1.2057   1.2821   1.2834
     1.2950   1.3008   1.3013   1.3043   1.3815   1.3961   1.4002   1.4017
     1.4124   1.4130   1.5505   1.6174   1.6183   1.7162   1.7179   1.7308
     1.7316   1.7329   1.7404   2.5130   2.5942   2.5999   2.6048   2.6073
     2.6236   2.8466   4.8651   4.9039   4.9174   4.9383   4.9418   5.1026
     5.5021   6.2609   6.4831   6.4873   6.5303   6.5388   6.5483   6.5509

[...]

          k = 0.4000-0.4619 0.0000 ( 93686 PWs)   bands (ev):

   -19.8235 -10.9911  -6.5980  -6.1944  -6.1877  -5.5838  -5.0189  -4.9430
    -4.7728  -4.5043  -4.4175  -4.3938  -4.2823  -4.2470  -4.1399  -4.1361
    -4.0330  -4.0274  -3.9135  -3.9064  -3.9017  -3.8678  -3.8609  -3.8463
    -3.8298  -3.7127  -3.6976  -3.6952  -3.6560  -3.6517  -3.5629  -3.4724
    -3.4424  -3.3837  -3.2855  -3.2845  -3.2745  -3.2719  -3.2505  -3.1485
    -3.1458  -3.0476  -3.0456  -2.8752  -2.8584  -2.8100  -2.7274  -2.7082
    -2.6651  -2.6545  -2.5876  -2.5245  -2.4835  -2.4467  -2.4354  -2.4157
    -2.3734  -2.3724  -2.3445  -2.2460  -2.2381  -2.2136  -2.2077  -2.2058
    -2.1967  -2.1912  -2.1305  -2.1212  -1.9941  -1.9746  -1.9274  -1.9190
    -1.8127  -1.7756  -1.7694  -1.7637  -1.7181  -1.6807  -1.6781  -1.6013
    -1.5777  -1.5699  -1.5543  -1.5362  -1.5084  -1.4609  -1.4462  -1.4049
    -1.3692  -1.3448  -1.3323  -1.3285  -1.2236  -1.1948  -1.1623  -1.1539
    -1.1261  -1.1170  -1.0765  -1.0724  -1.0698  -1.0323  -1.0276  -1.0246
    -0.9852  -0.9750  -0.9448  -0.9320  -0.9261  -0.9215  -0.9118  -0.8908
    -0.8743  -0.8186  -0.8121  -0.7417  -0.6004  -0.5790  -0.5045  -0.4952
    -0.3881  -0.3870  -0.3774  -0.3479  -0.3013  -0.2909  -0.2854  -0.2724
    -0.2526  -0.1773  -0.1481  -0.1445  -0.0804  -0.0723  -0.0381   0.0032
     0.0176   0.0743   0.1966   0.2576   0.2606   0.2816   0.2880   0.3705
     0.3822   0.3844   0.4068   0.4162   0.4391   0.4620   0.4708   0.5763
     0.5821   0.6052   0.6466   0.6531   0.6696   0.6783   0.6945   0.7212
     0.8547   0.9118   0.9428   1.0133   1.0211   1.0992   1.1042   1.1850
     1.2270   1.2352   1.2506   1.3384   1.3603   1.4118   1.4421   1.4553
     1.4628   1.4751   1.5006   1.5218   1.5627   1.6215   1.6227   1.6479
     1.6676   1.6730   1.6761   1.7236   1.7549   1.8777   1.8844   1.8881
     1.8914   1.9059   1.9654   2.0514   2.0819   2.2154   3.0391   3.0409
     3.2368   3.2620   3.3455   3.4345   3.4428   3.4546   3.8896   4.0486
     4.0547   4.5057   4.5262   4.5443   4.6492   4.6535   4.8681   4.9360
     4.9521   4.9862   5.3883   5.4838   5.4866   5.8710   6.1285   6.1324

     the Fermi energy is     1.6572 ev

!    total energy              =  -27820.66417328 Ry

     total all-electron energy =  -1326874.040569 Ry
     estimated scf accuracy    <       0.00000064 Ry
     smearing contrib. (-TS)   =       0.00154640 Ry
     internal energy E=F+TS    =  -27820.66571968 Ry

     The total energy is F=E-TS. E is the sum of the following terms:
     one-electron contribution =  -29842.84736908 Ry
     hartree contribution      =   15222.55006804 Ry
     xc contribution           =    -905.58550017 Ry
     ewald contribution        =   13195.85212444 Ry
     one-center paw contrib.   =  -25490.63504290 Ry

     convergence has been achieved in  21 iterations

[...]

     Forces acting on atoms (cartesian axes, Ry/au):

     atom    1 type  1   force =     0.00010418    0.00004792   -0.00592845
     atom    2 type  1   force =    -0.00043386    0.00005295   -0.00311676
     atom    3 type  1   force =     0.00040942    0.00005584   -0.00304142
     atom    4 type  1   force =    -0.00009395   -0.00035870   -0.00313863
     atom    5 type  1   force =    -0.00003629    0.00003626   -0.00368749
     atom    6 type  1   force =     0.00016736   -0.00031980   -0.00312386
     atom    7 type  1   force =     0.00024027    0.00029178   -0.00295140
     atom    8 type  1   force =    -0.00021000    0.00034293   -0.00300884
     atom    9 type  1   force =     0.00002327    0.00003931   -0.00310469
     atom   10 type  1   force =     0.00064403    0.00019239    0.00405079
     atom   11 type  1   force =    -0.00001999    0.00085214    0.00503342
     atom   12 type  1   force =    -0.00079966    0.00028539    0.00353113
     atom   13 type  1   force =     0.00083650   -0.00045036    0.00472186
     atom   14 type  1   force =    -0.00083559   -0.00045768    0.00490090
     atom   15 type  1   force =    -0.00003717    0.00066332    0.00284947
     atom   16 type  1   force =    -0.00011563   -0.00125934    0.00368849
     atom   17 type  1   force =     0.00051911   -0.00030475    0.00339778
     atom   18 type  1   force =    -0.00050341   -0.00029203    0.00255331
     atom   19 type  1   force =     0.00004981   -0.00016404   -0.00001418
     atom   20 type  1   force =     0.00034683    0.00006807   -0.00027000
     atom   21 type  1   force =    -0.00030741    0.00018826   -0.00031262
     atom   22 type  1   force =     0.00026669    0.00001468   -0.00023646
     atom   23 type  1   force =     0.00011798   -0.00021147   -0.00021020
     atom   24 type  1   force =    -0.00030320    0.00007292   -0.00015587
     atom   25 type  1   force =     0.00012102    0.00015885   -0.00005451
     atom   26 type  1   force =     0.00003370    0.00014253    0.00003170
     atom   27 type  1   force =    -0.00007830    0.00038689   -0.00011112
     atom   28 type  1   force =     0.00000894    0.00011071   -0.00017042
     atom   29 type  1   force =     0.00016336    0.00009194   -0.00023419
     atom   30 type  1   force =    -0.00017176    0.00020505   -0.00022249
     atom   31 type  1   force =     0.00008671    0.00009453   -0.00017983
     atom   32 type  1   force =    -0.00002653   -0.00006987   -0.00024836
     atom   33 type  1   force =    -0.00017271    0.00013224   -0.00017344
     atom   34 type  1   force =     0.00007828   -0.00005975   -0.00024519
     atom   35 type  1   force =     0.00001093   -0.00005602   -0.00030234
     atom   36 type  1   force =    -0.00003511    0.00017189    0.00012308
     atom   37 type  2   force =    -0.00207942   -0.00201216    0.00183439
     atom   38 type  3   force =    -0.00022300    0.00079485    0.00047652
     atom   39 type  4   force =     0.00015176    0.00001854   -0.00069233
     atom   40 type  4   force =    -0.00017725    0.00000375   -0.00020605
     atom   41 type  4   force =     0.00077996   -0.00056699   -0.00022562
     atom   42 type  4   force =     0.00150015    0.00106705   -0.00182607

     Total force =     0.004756     Total SCF correction =     0.001488
     SCF correction compared to forces is large: reduce conv_thr to get better values

[...]

     negative rho (up, down):  1.390E-02 0.000E+00

     negative rho (up, down):  1.390E-02 0.000E+00
 BEEFens 2000 ensemble energies
             -0.605992685085097E+02
             -0.360235379435736E+01
             -0.158132718438690E+02
              0.429024327265863E+02
             -0.221096550749314E+02
             -0.205196880767278E+02
             -0.351862115193446E+02
             -0.863859689805084E+02
             -0.464888800875981E+02
             -0.472579531967025E+02
             -0.368839860758537E+02
              0.227634779613012E+01
              0.404623037966385E+01
              0.764479667986998E+01
              0.264840563070715E+01
              0.474455914103944E+02
             -0.208702627122212E+02
             -0.230146721324709E+02
              0.192456321162795E+02
             -0.112288419657044E+03
              0.535764291125829E+02
             -0.289710495994154E+02
             -0.333642768510542E+01
             -0.114196370761187E+02
             -0.883660595676633E+01
             -0.462272368658043E+01
              0.881978535073486E+02
             -0.186880726923153E+02
             -0.899133616792744E+01
             -0.517649146897610E+02
              0.814908367520409E+02
             -0.187299708293732E+02
             -0.374429939483817E+02
              0.249086249683328E+02
             -0.284797122140714E+01
              0.163544003389353E+02
             -0.487312749734474E+01
              0.108285859684611E+02
              0.287773834933184E+02
             -0.103175718410535E+03
              0.558026357533046E+02
              0.142268002825899E+02
             -0.170562712190758E+01
             -0.361153368862589E+02
              0.123073873678242E+02
             -0.146774989203267E+02
              0.397731558277308E+02
              0.364532637724678E+02
             -0.308079306002637E+02
             -0.274527105615707E+02
             -0.327958052555588E+02
             -0.351796915182992E+02
              0.136074660913781E+02
             -0.490248346584077E+02
              0.115446326371683E+02
              0.622502096790392E+02
              0.634477695423174E+02
              0.355767741959107E+02
              0.153959480988666E+02
              0.270213546922901E+02
[...]
             -0.705322307596929E+02
             -0.880230285688299E+00
             -0.247495490407564E+01
             -0.880781724483882E+01
             -0.182832809133822E+01
             -0.652201714633003E+02
             -0.210623756192203E+02
              0.537464269569245E+01
              0.898088921489219E+01
              0.468295156181277E+02
             -0.397131687722080E+02
              0.656896731990981E+02
             -0.424890226013511E+02
              0.210104654592094E+02
              0.349683492230876E+02

 BEEF-vdW xc energy contributions
           1 :   -781.994423067589
           2 :    718.337683703933
           3 :   -608.223690721444
           4 :    478.724275252471
           5 :   -357.221940126326
           6 :    263.376479042175
           7 :   -204.741900530253
           8 :    176.797482278883
           9 :   -166.941274444016
          10 :    160.592532540186
          11 :   -146.942376089374
          12 :    122.187090421717
          13 :   -89.3821155284230
          14 :    55.5441050813257
          15 :   -27.6796525628591
          16 :    9.53554970548180
          17 :  -0.322951934554226
          18 :   -4.33537667227006
          19 :    9.93208672721039
          20 :   -20.3732918389034
          21 :    36.2909132226570
          22 :   -55.0381181071242
          23 :    72.1971663782379
          24 :   -83.7813703411963
          25 :    88.0539061112243
          26 :   -86.1594194832870
          27 :    81.3700204680322
          28 :   -77.4050457192282
          29 :    76.6692716858691
          30 :   -79.2396407866479
          31 :   -85.6923512206851
          32 :   -65.6488948882260

     Writing output data file ./pwscf.save/

     General routines

     Parallel routines

   This run was terminated on:  18:37:36  26Sep2022

   JOB DONE.