     Program PWSCF v.6.7MaX starts on 27Sep2022 at 20:42:33

     Reading input from ch3och2oh-ensemble.in
Warning: card &CELL ignored
Warning: card / ignored

     Current dimensions of program PWSCF are:
     Max number of different atomic species (ntypx) = 10
     Max number of k-points (npk) =  40000
     Max angular momentum in pseudopotentials (lmaxx) =  3
     file Pt.pbe-n-kjpaw_psl.1.0.0.UPF: wavefunction(s)  6S 5D renormalized
     file C.pbe-n-kjpaw_psl.1.0.0.UPF: wavefunction(s)  2S 2P renormalized
     file O.pbe-nl-kjpaw_psl.1.0.0.UPF: wavefunction(s)  2S 2P renormalized
     file H.pbe-kjpaw_psl.1.0.0.UPF: wavefunction(s)  1S renormalized

     IMPORTANT: XC functional enforced from input :
     Exchange-correlation= BEEF-VDW
                           (   1   4  43  14   2   0   0)
     Any further DFT definition will be discarded
     Please, verify this is what you really want

     Subspace diagonalization in iterative solution of the eigenvalue problem:
     a serial algorithm will be used

     bravais-lattice index     =            0
     lattice parameter (alat)  =      16.0349  a.u.
     unit-cell volume          =   11792.6868 (a.u.)^3
     number of atoms/cell      =           46
     number of atomic types    =            4
     number of electrons       =       386.00
     number of Kohn-Sham states=          232
     kinetic-energy cutoff     =      60.0000  Ry
     charge density cutoff     =     240.0000  Ry
     scf convergence threshold =      1.0E-06
     mixing beta               =       0.7000
     number of iterations used =            8  local-TF  mixing
     Exchange-correlation= BEEF-VDW
                           (   1   4  43  14   2   0   0)

     celldm(1)=  16.034858  celldm(2)=   0.000000  celldm(3)=   0.000000
     celldm(4)=   0.000000  celldm(5)=   0.000000  celldm(6)=   0.000000

     crystal axes: (cart. coord. in units of alat)
               a(1) = (   1.000000   0.000000   0.000000 )
               a(2) = (   0.500000   0.866025   0.000000 )
               a(3) = (   0.000000   0.000000   3.302834 )

     reciprocal axes: (cart. coord. in units 2 pi/alat)
               b(1) = (  1.000000 -0.577350  0.000000 )
               b(2) = (  0.000000  1.154701  0.000000 )
               b(3) = (  0.000000  0.000000  0.302770 )

     PseudoPot. # 1 for Pt read from file:
     /users/bkreitz1/quantum-espresso/potentials/Pt.pbe-n-kjpaw_psl.1.0.0.UPF
     MD5 check sum: 04dc8a03c51ece93fc7b5889c2958091
     Pseudo is Projector augmented-wave + core cor, Zval = 10.0
     Generated using 'atomic' code by A. Dal Corso  v.6.7MaX
     Shape of augmentation charge: PSQ
     Using radial grid of 1277 points,  6 beta functions with:
                l(1) =   0
                l(2) =   0
                l(3) =   1
                l(4) =   1
                l(5) =   2
                l(6) =   2
     Q(r) pseudized with 0 coefficients

     PseudoPot. # 2 for C  read from file:
     /users/bkreitz1/quantum-espresso/potentials/C.pbe-n-kjpaw_psl.1.0.0.UPF
     MD5 check sum: a169b0ebad56f5ec0d79c4633f80bf22
     Pseudo is Projector augmented-wave + core cor, Zval =  4.0
     Generated using 'atomic' code by A. Dal Corso  v.6.7MaX
     Shape of augmentation charge: PSQ
     Using radial grid of 1073 points,  4 beta functions with:
                l(1) =   0
                l(2) =   0
                l(3) =   1
                l(4) =   1
     Q(r) pseudized with 0 coefficients

     PseudoPot. # 3 for O  read from file:
     /users/bkreitz1/quantum-espresso/potentials/O.pbe-nl-kjpaw_psl.1.0.0.UPF
     MD5 check sum: eef08af8b58d9ec80f8fdb78829eb7cf
     Pseudo is Projector augmented-wave + core cor, Zval =  6.0
     Generated using 'atomic' code by A. Dal Corso  v.6.7MaX
     Shape of augmentation charge: PSQ
     Using radial grid of 1095 points,  4 beta functions with:
                l(1) =   0
                l(2) =   0
                l(3) =   1
                l(4) =   1
     Q(r) pseudized with 0 coefficients

     PseudoPot. # 4 for H  read from file:
     /users/bkreitz1/quantum-espresso/potentials/H.pbe-kjpaw_psl.1.0.0.UPF
     MD5 check sum: ae98473e6dc62675f0d0baffdab24f65
     Pseudo is Projector augmented-wave, Zval =  1.0
     Generated using 'atomic' code by A. Dal Corso  v.6.7MaX
     Shape of augmentation charge: PSQ
     Using radial grid of  929 points,  2 beta functions with:
                l(1) =   0
                l(2) =   0
     Q(r) pseudized with 0 coefficients

     atomic species   valence    mass     pseudopotential
        Pt            10.00   195.08400     Pt( 1.00)
        C              4.00    12.01100     C ( 1.00)
        O              6.00    15.99900     O ( 1.00)
        H              1.00     1.00800     H ( 1.00)

     No symmetry found

   Cartesian axes

     site n.     atom                  positions (alat units)
         1           Pt  tau(   1) = (   0.0000000   0.0000000   1.0017346  )
         2           Pt  tau(   2) = (   0.3333333   0.0000000   1.0017346  )
         3           Pt  tau(   3) = (   0.6666667   0.0000000   1.0017346  )
         4           Pt  tau(   4) = (   0.1666667   0.2886751   1.0017346  )
         5           Pt  tau(   5) = (   0.5000000   0.2886751   1.0017346  )
         6           Pt  tau(   6) = (   0.8333333   0.2886751   1.0017346  )
         7           Pt  tau(   7) = (   0.3333333   0.5773503   1.0017346  )
         8           Pt  tau(   8) = (   0.6666667   0.5773503   1.0017346  )
         9           Pt  tau(   9) = (   1.0000000   0.5773503   1.0017346  )
        10           Pt  tau(  10) = (   0.1666667   0.0962250   1.2739001  )
        11           Pt  tau(  11) = (   0.5000000   0.0962250   1.2739001  )
        12           Pt  tau(  12) = (   0.8333333   0.0962250   1.2739001  )
        13           Pt  tau(  13) = (   0.3333333   0.3849002   1.2739001  )
        14           Pt  tau(  14) = (   0.6666667   0.3849002   1.2739001  )
        15           Pt  tau(  15) = (   1.0000000   0.3849002   1.2739001  )
        16           Pt  tau(  16) = (   0.5000000   0.6735753   1.2739001  )
        17           Pt  tau(  17) = (   0.8333333   0.6735753   1.2739001  )
        18           Pt  tau(  18) = (   1.1666667   0.6735753   1.2739001  )
        19           Pt  tau(  19) = (   0.0000322   0.1920309   1.5414918  )
        20           Pt  tau(  20) = (   0.3340705   0.1927823   1.5436613  )
        21           Pt  tau(  21) = (   0.6660136   0.1927105   1.5435772  )
        22           Pt  tau(  22) = (   0.1666660   0.4813506   1.5425550  )
        23           Pt  tau(  23) = (   0.4999941   0.4801094   1.5440602  )
        24           Pt  tau(  24) = (   0.8334769   0.4813440   1.5424384  )
        25           Pt  tau(  25) = (   0.3335949   0.7698046   1.5419794  )
        26           Pt  tau(  26) = (   0.6663756   0.7698384   1.5418320  )
        27           Pt  tau(  27) = (   1.0000553   0.7696663   1.5424275  )
        28           Pt  tau(  28) = (  -0.0000052  -0.0001208   1.8170323  )
        29           Pt  tau(  29) = (   0.3329905  -0.0010198   1.8154959  )
        30           Pt  tau(  30) = (   0.6671055  -0.0010201   1.8157832  )
        31           Pt  tau(  31) = (   0.1656659   0.2887405   1.8151329  )
        32           Pt  tau(  32) = (   0.5002385   0.2887513   1.8215436  )
        33           Pt  tau(  33) = (   0.8345139   0.2887120   1.8149565  )
        34           Pt  tau(  34) = (   0.3329495   0.5779254   1.8165164  )
        35           Pt  tau(  35) = (   0.6670572   0.5781011   1.8160023  )
        36           Pt  tau(  36) = (   1.0000794   0.5773870   1.8176358  )
        37           C   tau(  37) = (   0.6382604   0.3280524   2.2245995  )
        38           C   tau(  38) = (   0.3599529   0.2731173   2.2215058  )
        39           O   tau(  39) = (   0.3053698   0.4294399   2.2287816  )
        40           H   tau(  40) = (   0.6430651   0.2835730   2.3456146  )
        41           H   tau(  41) = (   0.7448427   0.2940049   2.1617954  )
        42           H   tau(  42) = (   0.6271395   0.4562861   2.2258139  )
        43           H   tau(  43) = (   0.3729550   0.2342104   2.3437341  )
        44           H   tau(  44) = (   0.2797947   0.1960828   2.1564369  )
        45           H   tau(  45) = (   0.2706830   0.4608081   2.1241376  )
        46           O   tau(  46) = (   0.5082862   0.2559654   2.1432939  )

     number of k points=    13  Marzari-Vanderbilt smearing, width (Ry)=  0.0200
                       cart. coord. in units 2pi/alat
        k(    1) = (   0.0000000   0.0000000   0.0000000), wk =   0.0800000
        k(    2) = (   0.0000000   0.2309401   0.0000000), wk =   0.1600000
        k(    3) = (   0.0000000   0.4618802   0.0000000), wk =   0.1600000
        k(    4) = (   0.2000000  -0.1154701   0.0000000), wk =   0.1600000
        k(    5) = (   0.2000000   0.1154701   0.0000000), wk =   0.1600000
        k(    6) = (   0.2000000   0.3464102   0.0000000), wk =   0.1600000
        k(    7) = (   0.2000000  -0.5773503   0.0000000), wk =   0.1600000
        k(    8) = (   0.2000000  -0.3464102   0.0000000), wk =   0.1600000
        k(    9) = (   0.4000000  -0.2309401   0.0000000), wk =   0.1600000
        k(   10) = (   0.4000000  -0.0000000   0.0000000), wk =   0.1600000
        k(   11) = (   0.4000000   0.2309401   0.0000000), wk =   0.1600000
        k(   12) = (   0.4000000  -0.6928203   0.0000000), wk =   0.1600000
        k(   13) = (   0.4000000  -0.4618802   0.0000000), wk =   0.1600000

     Check: negative core charge=   -0.000002

     Initial potential from superposition of free atoms

     starting charge  385.99375, renormalised to  386.00000

     negative rho (up, down):  1.142E-02 0.000E+00

     %%%%%%%%%%%%%%%%%%%%%%%%%%%%%%%%%%%%%%%%%%%%%%%%%%%%%%%%%%%%%%%%%%%%%%%%
     %                                                                      %
     % You are using vdW-DF, which was implemented by the Thonhauser group. %
     % Please cite the following two papers that made this development      %
     % possible and the two reviews that describe the various versions:     %
     %                                                                      %
     %   T. Thonhauser et al., PRL 115, 136402 (2015).                      %
     %   T. Thonhauser et al., PRB 76, 125112 (2007).                       %
     %   K. Berland et al., Rep. Prog. Phys. 78, 066501 (2015).             %
     %   D.C. Langreth et al., J. Phys.: Condens. Matter 21, 084203 (2009). %
     %                                                                      %
     %                                                                      %
     % If you are calculating the stress with vdW-DF, please also cite:     %
     %                                                                      %
     %   R. Sabatini et al., J. Phys.: Condens. Matter 24, 424209 (2012).   %
     %                                                                      %
     %%%%%%%%%%%%%%%%%%%%%%%%%%%%%%%%%%%%%%%%%%%%%%%%%%%%%%%%%%%%%%%%%%%%%%%%

     Starting wfcs are  346 randomized atomic wfcs
     Checking if some PAW data can be deallocated...

     Self-consistent Calculation

     iteration #  1     ecut=    60.00 Ry     beta= 0.70
     Davidson diagonalization with overlap
     ethr =  1.00E-02,  avg # of iterations =  2.5

     Threshold (ethr) on eigenvalues was too large:
     Diagonalizing with lowered threshold

     Davidson diagonalization with overlap
     ethr =  6.41E-04,  avg # of iterations =  4.5

[...]

     total energy              =  -27884.39192175 Ry
     estimated scf accuracy    <       2.66909334 Ry

[...]

     iteration #  3     ecut=    60.00 Ry     beta= 0.70
     Davidson diagonalization with overlap
     c_bands:  2 eigenvalues not converged
     ethr =  2.77E-04,  avg # of iterations =  9.2

[...]

     iteration # 13     ecut=    60.00 Ry     beta= 0.70
     Davidson diagonalization with overlap
     c_bands:  1 eigenvalues not converged
     ethr =  1.37E-07,  avg # of iterations =  9.9

[...]

     total energy              =  -27884.58306505 Ry
     estimated scf accuracy    <       0.00000405 Ry

     iteration # 22     ecut=    60.00 Ry     beta= 0.70
     Davidson diagonalization with overlap
     ethr =  1.05E-09,  avg # of iterations =  2.0

[...]

     End of self-consistent calculation

          k = 0.0000 0.0000 0.0000 ( 92627 PWs)   bands (ev):

   -20.0892 -18.5739 -11.2427  -9.2459  -7.1432  -6.5048  -5.8414  -5.4320
    -5.1741  -4.7509  -4.7259  -4.7228  -4.7222  -4.7173  -4.7109  -4.7102
    -4.7008  -4.1669  -4.1627  -4.1613  -4.1598  -4.1581  -4.1573  -3.7925
    -3.6941  -3.6927  -3.6891  -3.6846  -3.6826  -3.6797  -3.5063  -3.4738
    -3.4725  -3.4711  -3.4697  -3.4684  -3.3938  -3.2437  -3.2433  -3.2380
    -3.2353  -3.2328  -3.2284  -3.2273  -3.2233  -3.2191  -3.2174  -3.2099
    -3.1974  -2.6264  -2.6258  -2.6011  -2.5967  -2.5695  -2.5448  -2.5396
    -2.5389  -2.5379  -2.5343  -2.4613  -2.4002  -2.3899  -2.3039  -2.2824
    -1.8032  -1.8002  -1.7922  -1.7900  -1.7852  -1.7827  -1.7245  -1.6343
    -1.6342  -1.6070  -1.6060  -1.5988  -1.5946  -1.5925  -1.5765  -1.5734
    -1.5705  -1.5685  -1.5648  -1.5635  -1.5320  -1.5316  -1.4207  -1.3832
    -1.3787  -1.3769  -1.3737  -1.3706  -1.2330  -1.2226  -1.2214  -1.2142
    -1.2125  -1.2111  -1.1757  -1.1253  -1.1249  -1.0301  -1.0293  -0.9796
    -0.9682  -0.9586  -0.9572  -0.9184  -0.9167  -0.9039  -0.8984  -0.7740
    -0.7638  -0.7545  -0.7534  -0.7493  -0.7464  -0.6669  -0.4425  -0.2641
    -0.2600  -0.2586  -0.2556  -0.2551  -0.2544  -0.2031  -0.1926  -0.1812
    -0.1806  -0.1800  -0.1702  -0.1149  -0.1011  -0.0112   0.0447   0.0566
     0.0611   0.0725   0.0863   0.1210   0.1973   0.2075   0.2137   0.2155
     0.2228   0.2233   0.4706   0.4714   0.4738   0.4771   0.4785   0.4837
     0.5544   0.5548   0.7324   0.7327   0.7353   0.7411   0.7449   0.7640
     0.9030   0.9051   0.9100   0.9112   0.9118   0.9241   0.9441   0.9473
     0.9502   0.9548   0.9593   1.0144   1.0805   1.0975   1.0996   1.1035
     1.1042   1.1074   1.1102   1.1130   1.1957   1.1983   1.2105   1.2129
     1.2143   1.2149   1.2229   1.2245   1.3073   1.3084   1.3173   1.3195
     1.3210   1.3252   1.4089   1.4182   1.4218   1.4222   1.4354   1.4361
     1.5763   1.6422   1.6431   1.7428   1.7431   1.7542   1.7550   1.7575
     1.7639   2.5588   2.6196   2.6271   2.6338   2.6483   2.6514   2.8212
     4.9145   4.9381   4.9654   4.9705   4.9760   5.0848   5.9209   6.5048
     6.5088   6.5310   6.5565   6.5608   6.5712   6.5721   6.9001   7.1755

[...]

          k = 0.4000-0.4619 0.0000 ( 92546 PWs)   bands (ev):

   -20.0892 -18.5739 -11.2428  -9.2458  -6.5037  -6.1763  -6.1694  -5.5697
    -5.4390  -5.1811  -4.9197  -4.8946  -4.4029  -4.3969  -4.2662  -4.2320
    -4.1246  -4.1206  -4.0172  -4.0125  -3.9028  -3.8907  -3.8848  -3.8529
    -3.8484  -3.8429  -3.8158  -3.7629  -3.6953  -3.6816  -3.6783  -3.6387
    -3.6360  -3.5406  -3.4658  -3.4277  -3.4143  -3.3561  -3.2673  -3.2659
    -3.2517  -3.2493  -3.2312  -3.1243  -3.1221  -3.0278  -3.0228  -2.8515
    -2.8410  -2.7865  -2.6923  -2.6850  -2.6362  -2.6300  -2.5308  -2.4836
    -2.4676  -2.4259  -2.4162  -2.3972  -2.3601  -2.3540  -2.3253  -2.2246
    -2.2207  -2.1927  -2.1908  -2.1839  -2.1798  -2.1770  -2.1109  -2.1024
    -1.9807  -1.9552  -1.9080  -1.9003  -1.7888  -1.7527  -1.7494  -1.7447
    -1.7004  -1.6596  -1.6567  -1.5811  -1.5503  -1.5467  -1.5356  -1.5118
    -1.4823  -1.4302  -1.4245  -1.3811  -1.3322  -1.3276  -1.3196  -1.3069
    -1.2028  -1.1928  -1.1437  -1.1392  -1.1043  -1.0985  -1.0590  -1.0553
    -1.0443  -1.0370  -1.0089  -1.0044  -0.9615  -0.9593  -0.9257  -0.9137
    -0.9059  -0.9041  -0.8948  -0.8742  -0.8560  -0.7963  -0.7934  -0.7899
    -0.5848  -0.5664  -0.4986  -0.4775  -0.4736  -0.3707  -0.3628  -0.3535
    -0.3313  -0.2764  -0.2683  -0.2620  -0.2488  -0.2265  -0.1612  -0.1304
    -0.1250  -0.0607  -0.0505  -0.0118   0.0047   0.0367   0.0509   0.1179
     0.2225   0.2788   0.2893   0.3082   0.3118   0.3963   0.4075   0.4119
     0.4288   0.4387   0.4651   0.4847   0.4950   0.6010   0.6096   0.6255
     0.6693   0.6753   0.6919   0.7080   0.7165   0.7432   0.8790   0.9307
     0.9667   1.0349   1.0490   1.1213   1.1265   1.2076   1.2490   1.2574
     1.2730   1.3610   1.3779   1.4354   1.4670   1.4776   1.4858   1.4979
     1.5258   1.5447   1.5761   1.6440   1.6461   1.6712   1.6936   1.6964
     1.7018   1.7386   1.7685   1.9015   1.9061   1.9101   1.9149   1.9222
     1.9871   2.0691   2.1023   2.2387   3.0607   3.0617   3.2627   3.3172
     3.3780   3.4589   3.4663   3.4713   3.9194   4.0706   4.0738   4.5275
     4.5471   4.5631   4.6721   4.6741   4.8895   4.9717   5.0226   5.1476
     5.4151   5.5028   5.5141   6.0014   6.1521   6.1531   6.4754   6.4964

     the Fermi energy is     1.6791 ev

!    total energy              =  -27884.58306504 Ry

     total all-electron energy =  -1327104.570444 Ry
     estimated scf accuracy    <       0.00000061 Ry
     smearing contrib. (-TS)   =       0.00186281 Ry
     internal energy E=F+TS    =  -27884.58492785 Ry

     The total energy is F=E-TS. E is the sum of the following terms:
     one-electron contribution =  -29021.46625994 Ry
     hartree contribution      =   14817.78238468 Ry
     xc contribution           =    -919.72345001 Ry
     ewald contribution        =   12746.13654329 Ry
     one-center paw contrib.   =  -25507.31414586 Ry

     convergence has been achieved in  22 iterations

[...]

     Forces acting on atoms (cartesian axes, Ry/au):

     atom    1 type  1   force =    -0.00008452    0.00003264   -0.00525309
     atom    2 type  1   force =    -0.00035679    0.00017907   -0.00319402
     atom    3 type  1   force =     0.00034598    0.00007090   -0.00312699
     atom    4 type  1   force =    -0.00003893   -0.00022391   -0.00320465
     atom    5 type  1   force =    -0.00010182    0.00006871   -0.00355876
     atom    6 type  1   force =     0.00010278   -0.00027458   -0.00324992
     atom    7 type  1   force =     0.00023501    0.00025902   -0.00316852
     atom    8 type  1   force =    -0.00034151    0.00026731   -0.00325140
     atom    9 type  1   force =     0.00003676   -0.00002058   -0.00333570
     atom   10 type  1   force =     0.00100291    0.00038572    0.00308232
     atom   11 type  1   force =    -0.00000704    0.00085865    0.00375348
     atom   12 type  1   force =    -0.00102260    0.00041991    0.00236895
     atom   13 type  1   force =     0.00085145   -0.00037350    0.00436236
     atom   14 type  1   force =    -0.00065953   -0.00040803    0.00389529
     atom   15 type  1   force =    -0.00002301    0.00052104    0.00228338
     atom   16 type  1   force =    -0.00008971   -0.00124453    0.00426699
     atom   17 type  1   force =     0.00035027   -0.00009286    0.00245779
     atom   18 type  1   force =    -0.00025395   -0.00005697    0.00248760
     atom   19 type  1   force =     0.00004540    0.00030814    0.00045371
     atom   20 type  1   force =    -0.00008456   -0.00004741   -0.00053042
     atom   21 type  1   force =     0.00008805   -0.00009053   -0.00037184
     atom   22 type  1   force =    -0.00010064   -0.00007167    0.00005898
     atom   23 type  1   force =    -0.00003829    0.00003037   -0.00043617
     atom   24 type  1   force =     0.00008833   -0.00003847    0.00011910
     atom   25 type  1   force =    -0.00029887   -0.00007257    0.00036278
     atom   26 type  1   force =     0.00029709   -0.00003154    0.00041171
     atom   27 type  1   force =    -0.00001454    0.00000162    0.00017750
     atom   28 type  1   force =     0.00005345    0.00009859   -0.00027396
     atom   29 type  1   force =     0.00012981    0.00011479    0.00056618
     atom   30 type  1   force =    -0.00014153    0.00014912    0.00058708
     atom   31 type  1   force =     0.00019884    0.00001075    0.00061773
     atom   32 type  1   force =    -0.00002944   -0.00018358    0.00072443
     atom   33 type  1   force =    -0.00016292    0.00001574    0.00056510
     atom   34 type  1   force =    -0.00001725   -0.00020223    0.00083332
     atom   35 type  1   force =     0.00013658   -0.00017994    0.00077770
     atom   36 type  1   force =    -0.00001071   -0.00006267   -0.00014415
     atom   37 type  2   force =     0.00129204    0.00126380    0.00404501
     atom   38 type  2   force =     0.00002727   -0.00132979    0.00287199
     atom   39 type  3   force =    -0.00068236    0.00094967   -0.00066384
     atom   40 type  4   force =     0.00105421    0.00057909    0.00069140
     atom   41 type  4   force =    -0.00048218   -0.00034965   -0.00059916
     atom   42 type  4   force =     0.00035576    0.00040786    0.00002227
     atom   43 type  4   force =    -0.00150840    0.00049771    0.00046585
     atom   44 type  4   force =     0.00033869    0.00046315   -0.00014205
     atom   45 type  4   force =    -0.00003776    0.00010312    0.00051804
     atom   46 type  3   force =    -0.00044184   -0.00270147   -0.00932338

     Total force =     0.011715     Total SCF correction =     0.002011
     SCF correction compared to forces is large: reduce conv_thr to get better values

[...]

     negative rho (up, down):  1.267E-02 0.000E+00

     negative rho (up, down):  1.267E-02 0.000E+00
 BEEFens 2000 ensemble energies
             -0.616376360457711E+02
             -0.365099881360297E+01
             -0.160312095589260E+02
              0.436207755357421E+02
             -0.224419602992278E+02
             -0.207839266719732E+02
             -0.359686684556874E+02
             -0.879616189200999E+02
             -0.470755509889553E+02
             -0.478758846708595E+02
             -0.374760800463040E+02
              0.238427547505500E+01
              0.410364078938724E+01
              0.755845782095861E+01
              0.271957935512145E+01
              0.482094577578340E+02
             -0.211998518096715E+02
             -0.231921911336975E+02
              0.195950505396066E+02
             -0.114094875948980E+03
              0.545127239374495E+02
             -0.292714004779170E+02
             -0.343715988495962E+01
             -0.115708729465769E+02
             -0.879978657628249E+01
             -0.472412166912278E+01
              0.896223366155201E+02
             -0.190642203487217E+02
             -0.914403252037118E+01
             -0.526809632884474E+02
              0.826082287689533E+02
             -0.188112364420858E+02
             -0.381161640521615E+02
              0.252246241428301E+02
             -0.289527233946643E+01
              0.168003492070531E+02
             -0.484414665796413E+01
              0.108336757521176E+02
              0.293483951418729E+02
             -0.104812855286285E+03
              0.566898713535078E+02
              0.144308284030076E+02
             -0.190007436252284E+01
             -0.366237908745723E+02
              0.124919480158939E+02
             -0.149762368827364E+02
              0.405867236444045E+02
              0.370283413739003E+02
             -0.311192590003818E+02
             -0.279641147941626E+02
             -0.332696987019053E+02
             -0.357739639591717E+02
              0.139271946029349E+02
             -0.498883258821877E+02
              0.118161993531094E+02
              0.632498722617000E+02
              0.646723454477233E+02
              0.360936404309763E+02
              0.156835045232422E+02
              0.275462886235881E+02
[...]
             -0.717541966090561E+02
             -0.812222974716633E+00
             -0.244634809477988E+01
             -0.898907352061963E+01
             -0.176700555539998E+01
             -0.662820464313459E+02
             -0.212232275148418E+02
              0.557734387996072E+01
              0.919102231993190E+01
              0.476469174802074E+02
             -0.404044067171001E+02
              0.665601859845995E+02
             -0.431204694545568E+02
              0.214495538886470E+02
              0.356795782319470E+02

 BEEF-vdW xc energy contributions
           1 :   -793.830320215948
           2 :    728.392646401066
           3 :   -615.541413557490
           4 :    483.313542543423
           5 :   -359.673112036394
           6 :    264.420203614583
           7 :   -204.979905556053
           8 :    176.617776845658
           9 :   -166.550202908506
          10 :    160.087728363344
          11 :   -146.379995279148
          12 :    121.621445321445
          13 :   -88.8764888886906
          14 :    55.1528846506864
          15 :   -27.4226728783083
          16 :    9.39183038482793
          17 :  -0.249550798584323
          18 :   -4.37414675679463
          19 :    9.94668055510431
          20 :   -20.3548625655191
          21 :    36.2320562204070
          22 :   -54.9494594640806
          23 :    72.1071820434537
          24 :   -83.7191689228447
          25 :    88.0312611370950
          26 :   -86.1646120179417
          27 :    81.3753436812507
          28 :   -77.3847311667000
          29 :    76.6148959045864
          30 :   -79.1635794060848
          31 :   -87.1855488252229
          32 :   -66.6199026934150

     Writing output data file ./pwscf.save/

     General routines

     Parallel routines

   This run was terminated on:   1:30:58  28Sep2022

   JOB DONE.