     Program PWSCF v.7.1 starts on 31Jan2023 at 21:55:36
        Git branch: heads/qe-7.1
        Last git commit: 48ba0178f8fede6d020eb786884699a9f063f55d-dirty
        Last git commit date: Fri Jan 27 14:22:33 2023 +0000
        Last git commit subject: Merge branch 'fix_hubbard' into 'develop'

     Reading input from ch3oco-ensemble.in
Warning: card &CELL ignored
Warning: card / ignored

     Current dimensions of program PWSCF are:
     Max number of different atomic species (ntypx) = 10
     Max number of k-points (npk) =  40000
     Max angular momentum in pseudopotentials (lmaxx) =  4
     file Pt.pbe-n-kjpaw_psl.1.0.0.UPF: wavefunction(s)  6S 5D renormalized
     file C.pbe-n-kjpaw_psl.1.0.0.UPF: wavefunction(s)  2S 2P renormalized
     file O.pbe-nl-kjpaw_psl.1.0.0.UPF: wavefunction(s)  2S 2P renormalized
     file H.pbe-kjpaw_psl.1.0.0.UPF: wavefunction(s)  1S renormalized

     IMPORTANT: XC functional enforced from input :
     Exchange-correlation= BEEF-VDW
                           (   1   4  43  14   2   0   0)
     Any further DFT definition will be discarded
     Please, verify this is what you really want

     R & G space division:  proc/nbgrp/npool/nimage =      32
     Subspace diagonalization in iterative solution of the eigenvalue problem:
     one sub-group per band group will be used

     Using Slab Decomposition

     bravais-lattice index     =            0
     lattice parameter (alat)  =      16.0349  a.u.
     unit-cell volume          =   11830.6828 (a.u.)^3
     number of atoms/cell      =           43
     number of atomic types    =            4
     number of electrons       =       383.00
     number of Kohn-Sham states=          230
     kinetic-energy cutoff     =      60.0000  Ry
     charge density cutoff     =     240.0000  Ry
     scf convergence threshold =      1.0E-06
     mixing beta               =       0.7000
     number of iterations used =            8  local-TF  mixing
     Exchange-correlation= BEEF-VDW
                           (   1   4  43  14   2   0   0)

     celldm(1)=  16.034858  celldm(2)=   0.000000  celldm(3)=   0.000000
     celldm(4)=   0.000000  celldm(5)=   0.000000  celldm(6)=   0.000000

     crystal axes: (cart. coord. in units of alat)
               a(1) = (   1.000000   0.000000   0.000000 )
               a(2) = (   0.500000   0.866025   0.000000 )
               a(3) = (   0.000000   0.000000   3.313476 )

     reciprocal axes: (cart. coord. in units 2 pi/alat)
               b(1) = (  1.000000 -0.577350  0.000000 )
               b(2) = (  0.000000  1.154701  0.000000 )
               b(3) = (  0.000000  0.000000  0.301798 )

     PseudoPot. # 1 for Pt read from file:
     /users/bkreitz1/quantum-espresso/potentials/Pt.pbe-n-kjpaw_psl.1.0.0.UPF
     MD5 check sum: 04dc8a03c51ece93fc7b5889c2958091
     Pseudo is Projector augmented-wave + core cor, Zval = 10.0
     Generated using 'atomic' code by A. Dal Corso  v.6.7MaX
     Shape of augmentation charge: PSQ
     Using radial grid of 1277 points,  6 beta functions with:
                l(1) =   0
                l(2) =   0
                l(3) =   1
                l(4) =   1
                l(5) =   2
                l(6) =   2
     Q(r) pseudized with 0 coefficients

     PseudoPot. # 2 for C  read from file:
     /users/bkreitz1/quantum-espresso/potentials/C.pbe-n-kjpaw_psl.1.0.0.UPF
     MD5 check sum: a169b0ebad56f5ec0d79c4633f80bf22
     Pseudo is Projector augmented-wave + core cor, Zval =  4.0
     Generated using 'atomic' code by A. Dal Corso  v.6.7MaX
     Shape of augmentation charge: PSQ
     Using radial grid of 1073 points,  4 beta functions with:
                l(1) =   0
                l(2) =   0
                l(3) =   1
                l(4) =   1
     Q(r) pseudized with 0 coefficients

     PseudoPot. # 3 for O  read from file:
     /users/bkreitz1/quantum-espresso/potentials/O.pbe-nl-kjpaw_psl.1.0.0.UPF
     MD5 check sum: eef08af8b58d9ec80f8fdb78829eb7cf
     Pseudo is Projector augmented-wave + core cor, Zval =  6.0
     Generated using 'atomic' code by A. Dal Corso  v.6.7MaX
     Shape of augmentation charge: PSQ
     Using radial grid of 1095 points,  4 beta functions with:
                l(1) =   0
                l(2) =   0
                l(3) =   1
                l(4) =   1
     Q(r) pseudized with 0 coefficients

     PseudoPot. # 4 for H  read from file:
     /users/bkreitz1/quantum-espresso/potentials/H.pbe-kjpaw_psl.1.0.0.UPF
     MD5 check sum: ae98473e6dc62675f0d0baffdab24f65
     Pseudo is Projector augmented-wave, Zval =  1.0
     Generated using 'atomic' code by A. Dal Corso  v.6.7MaX
     Shape of augmentation charge: PSQ
     Using radial grid of  929 points,  2 beta functions with:
                l(1) =   0
                l(2) =   0
     Q(r) pseudized with 0 coefficients

     atomic species   valence    mass     pseudopotential
        Pt            10.00   195.08400     Pt( 1.00)
        C              4.00    12.01100     C ( 1.00)
        O              6.00    15.99900     O ( 1.00)
        H              1.00     1.00800     H ( 1.00)

     No symmetry found

   Cartesian axes

     site n.     atom                  positions (alat units)
         1           Pt  tau(   1) = (   0.0000000   0.0000000   1.0017346  )
         2           Pt  tau(   2) = (   0.3333333   0.0000000   1.0017346  )
         3           Pt  tau(   3) = (   0.6666667   0.0000000   1.0017346  )
         4           Pt  tau(   4) = (   0.1666667   0.2886751   1.0017346  )
         5           Pt  tau(   5) = (   0.5000000   0.2886751   1.0017346  )
         6           Pt  tau(   6) = (   0.8333333   0.2886751   1.0017346  )
         7           Pt  tau(   7) = (   0.3333333   0.5773503   1.0017346  )
         8           Pt  tau(   8) = (   0.6666667   0.5773503   1.0017346  )
         9           Pt  tau(   9) = (   1.0000000   0.5773503   1.0017346  )
        10           Pt  tau(  10) = (   0.1666667   0.0962250   1.2739001  )
        11           Pt  tau(  11) = (   0.5000000   0.0962250   1.2739001  )
        12           Pt  tau(  12) = (   0.8333333   0.0962250   1.2739001  )
        13           Pt  tau(  13) = (   0.3333333   0.3849002   1.2739001  )
        14           Pt  tau(  14) = (   0.6666667   0.3849002   1.2739001  )
        15           Pt  tau(  15) = (   1.0000000   0.3849002   1.2739001  )
        16           Pt  tau(  16) = (   0.5000000   0.6735753   1.2739001  )
        17           Pt  tau(  17) = (   0.8333333   0.6735753   1.2739001  )
        18           Pt  tau(  18) = (   1.1666667   0.6735753   1.2739001  )
        19           Pt  tau(  19) = (  -0.0019324   0.1908634   1.5412462  )
        20           Pt  tau(  20) = (   0.3332565   0.1925730   1.5440083  )
        21           Pt  tau(  21) = (   0.6633512   0.1924079   1.5463882  )
        22           Pt  tau(  22) = (   0.1658612   0.4806562   1.5409388  )
        23           Pt  tau(  23) = (   0.4991026   0.4763138   1.5480490  )
        24           Pt  tau(  24) = (   0.8323031   0.4793969   1.5424775  )
        25           Pt  tau(  25) = (   0.3337025   0.7676427   1.5401162  )
        26           Pt  tau(  26) = (   0.6686877   0.7693964   1.5467157  )
        27           Pt  tau(  27) = (   0.9986865   0.7691067   1.5436376  )
        28           Pt  tau(  28) = (  -0.0048600  -0.0027874   1.8171853  )
        29           Pt  tau(  29) = (   0.3266056  -0.0037232   1.8212727  )
        30           Pt  tau(  30) = (   0.6688065  -0.0049936   1.8127308  )
        31           Pt  tau(  31) = (   0.1595699   0.2882526   1.8118970  )
        32           Pt  tau(  32) = (   0.4964939   0.2853438   1.8397870  )
        33           Pt  tau(  33) = (   0.8310442   0.2858460   1.8174028  )
        34           Pt  tau(  34) = (   0.3298522   0.5756440   1.8170383  )
        35           Pt  tau(  35) = (   0.6632765   0.5738132   1.8162883  )
        36           Pt  tau(  36) = (   0.9970123   0.5738376   1.8158425  )
        37           C   tau(  37) = (   0.5791733   0.4262978   2.1966211  )
        38           C   tau(  38) = (   0.4533944   0.2074601   2.0581682  )
        39           O   tau(  39) = (   0.3803567   0.0795192   2.0723325  )
        40           H   tau(  40) = (   0.5914678   0.4519715   2.3215390  )
        41           H   tau(  41) = (   0.6943219   0.4126908   2.1415587  )
        42           H   tau(  42) = (   0.5108960   0.5178284   2.1379649  )
        43           O   tau(  43) = (   0.4940514   0.2772346   2.1923887  )

     number of k points=    13  Marzari-Vanderbilt smearing, width (Ry)=  0.0200
                       cart. coord. in units 2pi/alat
        k(    1) = (   0.0000000   0.0000000   0.0000000), wk =   0.0800000
        k(    2) = (   0.0000000   0.2309401   0.0000000), wk =   0.1600000
        k(    3) = (   0.0000000   0.4618802   0.0000000), wk =   0.1600000
        k(    4) = (   0.2000000  -0.1154701   0.0000000), wk =   0.1600000
        k(    5) = (   0.2000000   0.1154701   0.0000000), wk =   0.1600000
        k(    6) = (   0.2000000   0.3464102   0.0000000), wk =   0.1600000
        k(    7) = (   0.2000000  -0.5773503   0.0000000), wk =   0.1600000
        k(    8) = (   0.2000000  -0.3464102   0.0000000), wk =   0.1600000
        k(    9) = (   0.4000000  -0.2309401   0.0000000), wk =   0.1600000
        k(   10) = (   0.4000000  -0.0000000   0.0000000), wk =   0.1600000
        k(   11) = (   0.4000000   0.2309401   0.0000000), wk =   0.1600000
        k(   12) = (   0.4000000  -0.6928203   0.0000000), wk =   0.1600000
        k(   13) = (   0.4000000  -0.4618802   0.0000000), wk =   0.1600000

     Check: negative core charge=   -0.000002

     Initial potential from superposition of free atoms

     starting charge     382.9938, renormalised to     383.0000

     negative rho (up, down):  1.218E-02 0.000E+00

     %%%%%%%%%%%%%%%%%%%%%%%%%%%%%%%%%%%%%%%%%%%%%%%%%%%%%%%%%%%%%%%%%%%%%%%%
     %                                                                      %
     % You are using vdW-DF, which was implemented by the Thonhauser group. %
     % Please cite the following two papers that made this development      %
     % possible and the two reviews that describe the various versions:     %
     %                                                                      %
     %   T. Thonhauser et al., PRL 115, 136402 (2015).                      %
     %   T. Thonhauser et al., PRB 76, 125112 (2007).                       %
     %   K. Berland et al., Rep. Prog. Phys. 78, 066501 (2015).             %
     %   D.C. Langreth et al., J. Phys.: Condens. Matter 21, 084203 (2009). %
     %                                                                      %
     % If you are calculating stress with vdW-DF, please also cite:         %
     %                                                                      %
     %   R. Sabatini et al., J. Phys.: Condens. Matter 24, 424209 (2012).   %
     %                                                                      %
     %%%%%%%%%%%%%%%%%%%%%%%%%%%%%%%%%%%%%%%%%%%%%%%%%%%%%%%%%%%%%%%%%%%%%%%%

[...]
     atom   12 type  1   force =     0.11095308   -0.03974689   40.32993239
     atom   13 type  1   force =    -0.15381250   -0.04499890   40.38987869
     atom   14 type  1   force =     0.09414846   -0.05407555   40.27969647
     atom   15 type  1   force =     0.06574865    0.00808270   40.45837456
     atom   16 type  1   force =    -0.18833622    0.13002830   40.11897879
     atom   17 type  1   force =     0.14587399   -0.01489676   40.32119579
     atom   18 type  1   force =     0.02786929   -0.05832658   40.44572860
     atom   19 type  1   force =     0.13943783    0.13611436  -25.66910154
     atom   20 type  1   force =     0.07394373    0.01315365  -25.79376226
     atom   21 type  1   force =    -0.26733216    0.05320692  -26.39719952
     atom   22 type  1   force =     0.09144390   -0.17489084  -25.63366424
     atom   23 type  1   force =    -0.03270236   -0.41999858  -26.71063153
     atom   24 type  1   force =    -0.05103474   -0.03663377  -25.84965626
     atom   25 type  1   force =    -0.20345023    0.02519482  -25.43351126
     atom   26 type  1   force =     0.45843157    0.19836620  -26.41393645
     atom   27 type  1   force =    -0.12431572    0.22160276  -25.95810427
     atom   28 type  1   force =     0.72266018   -0.05759657  -93.66158931
     atom   29 type  1   force =     1.69435825    3.27351643  -88.16174821
     atom   30 type  1   force =    -1.82284162    1.82493671  -91.02652061
     atom   31 type  1   force =     2.50553983   -0.98296294  -90.93210063
     atom   32 type  1   force =    -1.41936563   -2.57819113  -86.73980329
     atom   33 type  1   force =    -1.99953017    0.07178998  -92.59067204
     atom   34 type  1   force =     1.17020275   -1.55061339  -92.53446267
     atom   35 type  1   force =    -0.73108087   -1.18547762  -91.40080535
     atom   36 type  1   force =    -0.46031041    0.52493920  -93.50369916
     atom   37 type  2   force =    -2.79563917   -4.88489460  -44.12409575
     atom   38 type  2   force =    -0.90118929   -1.60452019  -41.96861492
     atom   39 type  3   force =     4.90790725    8.70633295  -70.27177453
     atom   40 type  4   force =    -0.55298342   -1.05162516  -12.14631876
     atom   41 type  4   force =    -2.65693500   -0.28357412  -10.39112500
     atom   42 type  4   force =     1.06552209   -2.42010802  -10.35599949
     atom   43 type  3   force =    -0.04813145   -0.01099187  -71.18540159
     The core correction contribution to forces
     atom    1 type  1   force =    -0.00006011   -0.00003267    0.01754567
     atom    2 type  1   force =    -0.00004232   -0.00001704    0.01701732
     atom    3 type  1   force =    -0.00000793   -0.00001376    0.01711116
     atom    4 type  1   force =    -0.00001403   -0.00004051    0.01711633
     atom    5 type  1   force =    -0.00001498    0.00001839    0.01702439
     atom    6 type  1   force =     0.00001211   -0.00001934    0.01702235
     atom    7 type  1   force =     0.00004564    0.00007530    0.01717959
     atom    8 type  1   force =     0.00006620   -0.00006334    0.01702319
     atom    9 type  1   force =     0.00000768   -0.00000648    0.01706097
     atom   10 type  1   force =     0.00005674    0.00043662    0.00093224
     atom   11 type  1   force =    -0.00014609   -0.00012475    0.00099916
     atom   12 type  1   force =     0.00040880   -0.00025663    0.00113303
     atom   13 type  1   force =    -0.00046396   -0.00009540    0.00108558
     atom   14 type  1   force =     0.00031450    0.00006738    0.00073518
     atom   15 type  1   force =     0.00014685    0.00003760    0.00162044
     atom   16 type  1   force =    -0.00089870    0.00033851    0.00011594
     atom   17 type  1   force =     0.00025212   -0.00004771    0.00110026
     atom   18 type  1   force =     0.00033504   -0.00014549    0.00167229
     atom   19 type  1   force =     0.00011415    0.00045390   -0.00196131
     atom   20 type  1   force =    -0.00041132    0.00030725   -0.00352167
     atom   21 type  1   force =     0.00020888    0.00013715   -0.00221085
     atom   22 type  1   force =    -0.00001671   -0.00016853   -0.00192477
     atom   23 type  1   force =     0.00014616   -0.00023507   -0.00161341
     atom   24 type  1   force =     0.00008909   -0.00005529   -0.00174096
     atom   25 type  1   force =    -0.00045899    0.00006090   -0.00178820
     atom   26 type  1   force =     0.00133377    0.00026990   -0.00061723
     atom   27 type  1   force =    -0.00012680   -0.00027888   -0.00197797
     atom   28 type  1   force =    -0.00068144   -0.00018870   -0.01636183
     atom   29 type  1   force =     0.00076706    0.00397616   -0.00801467
     atom   30 type  1   force =     0.00182482   -0.00006109   -0.01581024
     atom   31 type  1   force =    -0.00078678    0.00034707   -0.01572724
     atom   32 type  1   force =    -0.00484875   -0.00856539    0.00848556
     atom   33 type  1   force =     0.00044450   -0.00007690   -0.01568258
     atom   34 type  1   force =     0.00021168    0.00075213   -0.01563252
     atom   35 type  1   force =    -0.00044907   -0.00016463   -0.01567983
     atom   36 type  1   force =     0.00023360   -0.00097170   -0.01654841
     atom   37 type  2   force =     0.00527156    0.00783522   -0.00015500
     atom   38 type  2   force =     0.00000215   -0.00074170   -0.00771104
     atom   39 type  3   force =    -0.00916374   -0.01624855    0.00764867
     atom   40 type  4   force =     0.00000000    0.00000000    0.00000000
     atom   41 type  4   force =     0.00000000    0.00000000    0.00000000
     atom   42 type  4   force =     0.00000000    0.00000000    0.00000000
     atom   43 type  3   force =    -0.00488008   -0.00876914    0.01918273
     The Hubbard contrib.    to forces
     atom    1 type  1   force =     0.00000000    0.00000000    0.00000000
     atom    2 type  1   force =     0.00000000    0.00000000    0.00000000
     atom    3 type  1   force =     0.00000000    0.00000000    0.00000000
     atom    4 type  1   force =     0.00000000    0.00000000    0.00000000
     atom    5 type  1   force =     0.00000000    0.00000000    0.00000000
     atom    6 type  1   force =     0.00000000    0.00000000    0.00000000
     atom    7 type  1   force =     0.00000000    0.00000000    0.00000000
     atom    8 type  1   force =     0.00000000    0.00000000    0.00000000
     atom    9 type  1   force =     0.00000000    0.00000000    0.00000000
     atom   10 type  1   force =     0.00000000    0.00000000    0.00000000
     atom   11 type  1   force =     0.00000000    0.00000000    0.00000000
     atom   12 type  1   force =     0.00000000    0.00000000    0.00000000
     atom   13 type  1   force =     0.00000000    0.00000000    0.00000000
     atom   14 type  1   force =     0.00000000    0.00000000    0.00000000
     atom   15 type  1   force =     0.00000000    0.00000000    0.00000000
     atom   16 type  1   force =     0.00000000    0.00000000    0.00000000
     atom   17 type  1   force =     0.00000000    0.00000000    0.00000000
     atom   18 type  1   force =     0.00000000    0.00000000    0.00000000
     atom   19 type  1   force =     0.00000000    0.00000000    0.00000000
     atom   20 type  1   force =     0.00000000    0.00000000    0.00000000
     atom   21 type  1   force =     0.00000000    0.00000000    0.00000000
     atom   22 type  1   force =     0.00000000    0.00000000    0.00000000
     atom   23 type  1   force =     0.00000000    0.00000000    0.00000000
     atom   24 type  1   force =     0.00000000    0.00000000    0.00000000
     atom   25 type  1   force =     0.00000000    0.00000000    0.00000000
     atom   26 type  1   force =     0.00000000    0.00000000    0.00000000
     atom   27 type  1   force =     0.00000000    0.00000000    0.00000000
     atom   28 type  1   force =     0.00000000    0.00000000    0.00000000
     atom   29 type  1   force =     0.00000000    0.00000000    0.00000000
     atom   30 type  1   force =     0.00000000    0.00000000    0.00000000
     atom   31 type  1   force =     0.00000000    0.00000000    0.00000000
     atom   32 type  1   force =     0.00000000    0.00000000    0.00000000
     atom   33 type  1   force =     0.00000000    0.00000000    0.00000000
     atom   34 type  1   force =     0.00000000    0.00000000    0.00000000
     atom   35 type  1   force =     0.00000000    0.00000000    0.00000000
     atom   36 type  1   force =     0.00000000    0.00000000    0.00000000
     atom   37 type  2   force =     0.00000000    0.00000000    0.00000000
     atom   38 type  2   force =     0.00000000    0.00000000    0.00000000
     atom   39 type  3   force =     0.00000000    0.00000000    0.00000000
     atom   40 type  4   force =     0.00000000    0.00000000    0.00000000
     atom   41 type  4   force =     0.00000000    0.00000000    0.00000000
     atom   42 type  4   force =     0.00000000    0.00000000    0.00000000
     atom   43 type  3   force =     0.00000000    0.00000000    0.00000000
     The SCF correction term to forces
     atom    1 type  1   force =    -0.00000000   -0.00000000   -0.00000000
     atom    2 type  1   force =     0.00000000    0.00000000   -0.00000000
     atom    3 type  1   force =    -0.00000000    0.00000000   -0.00000000
     atom    4 type  1   force =     0.00000000    0.00000000   -0.00000000
     atom    5 type  1   force =    -0.00000000    0.00000000   -0.00000000
     atom    6 type  1   force =    -0.00000000    0.00000000   -0.00000000
     atom    7 type  1   force =    -0.00000000   -0.00000000   -0.00000000
     atom    8 type  1   force =    -0.00000000   -0.00000000   -0.00000000
     atom    9 type  1   force =     0.00000000   -0.00000000   -0.00000000
     atom   10 type  1   force =     0.00000000    0.00000000    0.00000000
     atom   11 type  1   force =    -0.00000000    0.00000000    0.00000000
     atom   12 type  1   force =    -0.00000000    0.00000000    0.00000000
     atom   13 type  1   force =     0.00000000    0.00000000    0.00000000
     atom   14 type  1   force =    -0.00000000   -0.00000000    0.00000000
     atom   15 type  1   force =     0.00000000    0.00000000    0.00000000
     atom   16 type  1   force =    -0.00000000   -0.00000000    0.00000000
     atom   17 type  1   force =     0.00000000   -0.00000000    0.00000000
     atom   18 type  1   force =     0.00000000   -0.00000000    0.00000000
     atom   19 type  1   force =     0.00014095    0.00014573    0.00021808
     atom   20 type  1   force =     0.00008785    0.00021425    0.00022864
     atom   21 type  1   force =    -0.00024259    0.00015438    0.00020917
     atom   22 type  1   force =     0.00013444   -0.00003272    0.00013890
     atom   23 type  1   force =    -0.00013647   -0.00017291    0.00021723
     atom   24 type  1   force =     0.00000258    0.00004855    0.00018548
     atom   25 type  1   force =    -0.00005519   -0.00024961    0.00016803
     atom   26 type  1   force =     0.00007822   -0.00006344    0.00029448
     atom   27 type  1   force =    -0.00001697   -0.00005052    0.00020442
     atom   28 type  1   force =     0.00008999   -0.00003423    0.00080549
     atom   29 type  1   force =    -0.00000987   -0.00000941    0.00076480
     atom   30 type  1   force =    -0.00006722   -0.00014017    0.00072805
     atom   31 type  1   force =     0.00005191    0.00005995    0.00062835
     atom   32 type  1   force =    -0.00012009    0.00002924    0.00011220
     atom   33 type  1   force =     0.00009420    0.00006463    0.00064436
     atom   34 type  1   force =    -0.00009600   -0.00005460    0.00054246
     atom   35 type  1   force =     0.00003202    0.00009044    0.00049775
     atom   36 type  1   force =     0.00006137    0.00001600    0.00068629
     atom   37 type  2   force =    -0.00001365   -0.00001167    0.00036969
     atom   38 type  2   force =    -0.00017854   -0.00028381    0.00026345
     atom   39 type  3   force =    -0.00020864   -0.00035207    0.00050337
     atom   40 type  4   force =     0.00000336    0.00000820    0.00011117
     atom   41 type  4   force =     0.00005613    0.00000292    0.00005527
     atom   42 type  4   force =    -0.00002877    0.00005023    0.00005087
     atom   43 type  3   force =    -0.00027107   -0.00045155    0.00056234

     Total force =     0.003691     Total SCF correction =     0.002404
     SCF correction compared to forces is large: reduce conv_thr to get better values

[...]

     negative rho (up, down):  1.388E-02 0.000E+00

     negative rho (up, down):  1.388E-02 0.000E+00
 BEEFens 2000 ensemble energies
             -0.614603367731476E+02
             -0.365316441693830E+01
             -0.160083814205176E+02
              0.434864469090735E+02
             -0.223727567932368E+02
             -0.207471504970811E+02
             -0.357970537798294E+02
             -0.876818995298777E+02
             -0.470018490434800E+02
             -0.477822469503353E+02
             -0.373823786929037E+02
              0.234354106024826E+01
              0.411390306733784E+01
              0.759217830509962E+01
              0.270736293411832E+01
              0.480772379391368E+02
             -0.211439988674942E+02
             -0.232033959152296E+02
              0.195520452764147E+02
             -0.113778676039235E+03
              0.543470972182229E+02
             -0.292359473613104E+02
             -0.341276930286570E+01
             -0.115321332764523E+02
             -0.884476378841612E+01
             -0.472910677345229E+01
              0.893761657652068E+02
             -0.189632881069901E+02
             -0.913005779248863E+01
             -0.525343024699876E+02
              0.824599330616190E+02
             -0.188397743347480E+02
             -0.380069077659874E+02
              0.251936745754666E+02
             -0.287741963996433E+01
              0.167114936854805E+02
             -0.485232833942399E+01
              0.108442202876153E+02
              0.292328083754470E+02
             -0.104550150303816E+03
              0.565177128454656E+02
              0.143952788302548E+02
             -0.183108900634068E+01
             -0.365624599451118E+02
              0.124580553027859E+02
             -0.148837278300602E+02
              0.404382734025939E+02
              0.369331413619286E+02
             -0.310844068705621E+02
             -0.278959475022001E+02
             -0.332012001911144E+02
             -0.356601853593518E+02
              0.138425121462011E+02
             -0.497476567745410E+02
              0.117505903467517E+02
              0.630798928606547E+02
              0.644375000138344E+02
              0.359911335255222E+02
              0.156367774729897E+02
              0.274318120392677E+02
[...]
             -0.715349415399006E+02
             -0.866262291619250E+00
             -0.245230181423743E+01
             -0.895817572079261E+01
             -0.175851421888945E+01
             -0.661006606746863E+02
             -0.212328849521087E+02
              0.552566931179401E+01
              0.912864452250881E+01
              0.474936107150403E+02
             -0.402843492658833E+02
              0.664391677083827E+02
             -0.430118134632598E+02
              0.213476394822969E+02
              0.355534733156704E+02

 BEEF-vdW xc energy contributions
           1 :   -791.97900102763231
           2 :    727.11231320952447
           3 :   -614.99801239672081
           4 :    483.26226938242519
           5 :   -359.74434631567226
           6 :    264.37835025821789
           7 :   -204.79422172901047
           8 :    176.38466615110201
           9 :   -166.38124842053719
          10 :    160.04096400452784
          11 :   -146.44452673510102
          12 :    121.73462237857086
          13 :   -88.956508319213981
          14 :    55.138943841489549
          15 :   -27.303875987159245
          16 :    9.2097202472828030
          17 :   -6.9104437697319554E-002
          18 :   -4.5071098298353718
          19 :    10.029014889841505
          20 :   -20.415113365865750
          21 :    36.301068641983989
          22 :   -55.034844703485192
          23 :    72.187789525220410
          24 :   -83.764352371131849
          25 :    88.028360519809439
          26 :   -86.132265520883607
          27 :    81.352855979884566
          28 :   -77.406063032751490
          29 :    76.685264957745744
          30 :   -79.249777411025548
          31 :   -86.890387005396292
          32 :   -66.483729666609065

     Writing all to output data dir ./pwscf.save/

     General routines

     Parallel routines

   This run was terminated on:  22: 8: 4  31Jan2023

   JOB DONE.