     Program PWSCF v.6.7MaX starts on 27Sep2022 at  8:36: 1

     Reading input from ch3och3-ensemble.in
Warning: card &CELL ignored
Warning: card / ignored

     Current dimensions of program PWSCF are:
     Max number of different atomic species (ntypx) = 10
     Max number of k-points (npk) =  40000
     Max angular momentum in pseudopotentials (lmaxx) =  3
     file Pt.pbe-n-kjpaw_psl.1.0.0.UPF: wavefunction(s)  6S 5D renormalized
     file C.pbe-n-kjpaw_psl.1.0.0.UPF: wavefunction(s)  2S 2P renormalized
     file H.pbe-kjpaw_psl.1.0.0.UPF: wavefunction(s)  1S renormalized
     file O.pbe-nl-kjpaw_psl.1.0.0.UPF: wavefunction(s)  2S 2P renormalized

     IMPORTANT: XC functional enforced from input :
     Exchange-correlation= BEEF-VDW
                           (   1   4  43  14   2   0   0)
     Any further DFT definition will be discarded
     Please, verify this is what you really want

     Subspace diagonalization in iterative solution of the eigenvalue problem:
     a serial algorithm will be used

     bravais-lattice index     =            0
     lattice parameter (alat)  =      16.0349  a.u.
     unit-cell volume          =   11914.4743 (a.u.)^3
     number of atoms/cell      =           45
     number of atomic types    =            4
     number of electrons       =       380.00
     number of Kohn-Sham states=          228
     kinetic-energy cutoff     =      60.0000  Ry
     charge density cutoff     =     240.0000  Ry
     scf convergence threshold =      1.0E-06
     mixing beta               =       0.7000
     number of iterations used =            8  local-TF  mixing
     Exchange-correlation= BEEF-VDW
                           (   1   4  43  14   2   0   0)

     celldm(1)=  16.034858  celldm(2)=   0.000000  celldm(3)=   0.000000
     celldm(4)=   0.000000  celldm(5)=   0.000000  celldm(6)=   0.000000

     crystal axes: (cart. coord. in units of alat)
               a(1) = (   1.000000   0.000000   0.000000 )
               a(2) = (   0.500000   0.866025   0.000000 )
               a(3) = (   0.000000   0.000000   3.336944 )

     reciprocal axes: (cart. coord. in units 2 pi/alat)
               b(1) = (  1.000000 -0.577350  0.000000 )
               b(2) = (  0.000000  1.154701  0.000000 )
               b(3) = (  0.000000  0.000000  0.299675 )

     PseudoPot. # 1 for Pt read from file:
     /users/bkreitz1/quantum-espresso/potentials/Pt.pbe-n-kjpaw_psl.1.0.0.UPF
     MD5 check sum: 04dc8a03c51ece93fc7b5889c2958091
     Pseudo is Projector augmented-wave + core cor, Zval = 10.0
     Generated using 'atomic' code by A. Dal Corso  v.6.7MaX
     Shape of augmentation charge: PSQ
     Using radial grid of 1277 points,  6 beta functions with:
                l(1) =   0
                l(2) =   0
                l(3) =   1
                l(4) =   1
                l(5) =   2
                l(6) =   2
     Q(r) pseudized with 0 coefficients

     PseudoPot. # 2 for C  read from file:
     /users/bkreitz1/quantum-espresso/potentials/C.pbe-n-kjpaw_psl.1.0.0.UPF
     MD5 check sum: a169b0ebad56f5ec0d79c4633f80bf22
     Pseudo is Projector augmented-wave + core cor, Zval =  4.0
     Generated using 'atomic' code by A. Dal Corso  v.6.7MaX
     Shape of augmentation charge: PSQ
     Using radial grid of 1073 points,  4 beta functions with:
                l(1) =   0
                l(2) =   0
                l(3) =   1
                l(4) =   1
     Q(r) pseudized with 0 coefficients

     PseudoPot. # 3 for H  read from file:
     /users/bkreitz1/quantum-espresso/potentials/H.pbe-kjpaw_psl.1.0.0.UPF
     MD5 check sum: ae98473e6dc62675f0d0baffdab24f65
     Pseudo is Projector augmented-wave, Zval =  1.0
     Generated using 'atomic' code by A. Dal Corso  v.6.7MaX
     Shape of augmentation charge: PSQ
     Using radial grid of  929 points,  2 beta functions with:
                l(1) =   0
                l(2) =   0
     Q(r) pseudized with 0 coefficients

     PseudoPot. # 4 for O  read from file:
     /users/bkreitz1/quantum-espresso/potentials/O.pbe-nl-kjpaw_psl.1.0.0.UPF
     MD5 check sum: eef08af8b58d9ec80f8fdb78829eb7cf
     Pseudo is Projector augmented-wave + core cor, Zval =  6.0
     Generated using 'atomic' code by A. Dal Corso  v.6.7MaX
     Shape of augmentation charge: PSQ
     Using radial grid of 1095 points,  4 beta functions with:
                l(1) =   0
                l(2) =   0
                l(3) =   1
                l(4) =   1
     Q(r) pseudized with 0 coefficients

     atomic species   valence    mass     pseudopotential
        Pt            10.00   195.08400     Pt( 1.00)
        C              4.00    12.01100     C ( 1.00)
        H              1.00     1.00800     H ( 1.00)
        O              6.00    15.99900     O ( 1.00)

     No symmetry found

   Cartesian axes

     site n.     atom                  positions (alat units)
         1           Pt  tau(   1) = (   0.0000000   0.0000000   1.0017346  )
         2           Pt  tau(   2) = (   0.3333333   0.0000000   1.0017346  )
         3           Pt  tau(   3) = (   0.6666667   0.0000000   1.0017346  )
         4           Pt  tau(   4) = (   0.1666667   0.2886751   1.0017346  )
         5           Pt  tau(   5) = (   0.5000000   0.2886751   1.0017346  )
         6           Pt  tau(   6) = (   0.8333333   0.2886751   1.0017346  )
         7           Pt  tau(   7) = (   0.3333333   0.5773503   1.0017346  )
         8           Pt  tau(   8) = (   0.6666667   0.5773503   1.0017346  )
         9           Pt  tau(   9) = (   1.0000000   0.5773503   1.0017346  )
        10           Pt  tau(  10) = (   0.1666667   0.0962250   1.2739001  )
        11           Pt  tau(  11) = (   0.5000000   0.0962250   1.2739001  )
        12           Pt  tau(  12) = (   0.8333333   0.0962250   1.2739001  )
        13           Pt  tau(  13) = (   0.3333333   0.3849002   1.2739001  )
        14           Pt  tau(  14) = (   0.6666667   0.3849002   1.2739001  )
        15           Pt  tau(  15) = (   1.0000000   0.3849002   1.2739001  )
        16           Pt  tau(  16) = (   0.5000000   0.6735753   1.2739001  )
        17           Pt  tau(  17) = (   0.8333333   0.6735753   1.2739001  )
        18           Pt  tau(  18) = (   1.1666667   0.6735753   1.2739001  )
        19           Pt  tau(  19) = (   0.0001616   0.1920121   1.5417194  )
        20           Pt  tau(  20) = (   0.3341006   0.1927216   1.5439215  )
        21           Pt  tau(  21) = (   0.6661195   0.1925775   1.5434187  )
        22           Pt  tau(  22) = (   0.1665860   0.4811626   1.5425297  )
        23           Pt  tau(  23) = (   0.4999802   0.4804181   1.5436794  )
        24           Pt  tau(  24) = (   0.8333944   0.4812404   1.5423998  )
        25           Pt  tau(  25) = (   0.3335158   0.7698559   1.5421611  )
        26           Pt  tau(  26) = (   0.6665141   0.7699585   1.5420732  )
        27           Pt  tau(  27) = (   0.9999535   0.7696502   1.5426336  )
        28           Pt  tau(  28) = (   0.0000549  -0.0001434   1.8172835  )
        29           Pt  tau(  29) = (   0.3331471  -0.0006235   1.8164446  )
        30           Pt  tau(  30) = (   0.6669107  -0.0007619   1.8162402  )
        31           Pt  tau(  31) = (   0.1659337   0.2886272   1.8157965  )
        32           Pt  tau(  32) = (   0.5007359   0.2890835   1.8205259  )
        33           Pt  tau(  33) = (   0.8346041   0.2885692   1.8150831  )
        34           Pt  tau(  34) = (   0.3329529   0.5780195   1.8162185  )
        35           Pt  tau(  35) = (   0.6671490   0.5782940   1.8159307  )
        36           Pt  tau(  36) = (   1.0000934   0.5774020   1.8173019  )
        37           C   tau(  37) = (   0.6530135   0.3457319   2.2211333  )
        38           C   tau(  38) = (   0.3727103   0.3361273   2.2202048  )
        39           H   tau(  39) = (   0.6570769   0.3086937   2.3448914  )
        40           H   tau(  40) = (   0.7544739   0.2981409   2.1584075  )
        41           H   tau(  41) = (   0.6550384   0.4748613   2.2146257  )
        42           H   tau(  42) = (   0.3607001   0.4645658   2.2113689  )
        43           H   tau(  43) = (   0.3713028   0.3010216   2.3445873  )
        44           O   tau(  44) = (   0.5150276   0.2829629   2.1463735  )
        45           H   tau(  45) = (   0.2754968   0.2796418   2.1594038  )

     number of k points=    13  Marzari-Vanderbilt smearing, width (Ry)=  0.0200
                       cart. coord. in units 2pi/alat
        k(    1) = (   0.0000000   0.0000000   0.0000000), wk =   0.0800000
        k(    2) = (   0.0000000   0.2309401   0.0000000), wk =   0.1600000
        k(    3) = (   0.0000000   0.4618802   0.0000000), wk =   0.1600000
        k(    4) = (   0.2000000  -0.1154701   0.0000000), wk =   0.1600000
        k(    5) = (   0.2000000   0.1154701   0.0000000), wk =   0.1600000
        k(    6) = (   0.2000000   0.3464102   0.0000000), wk =   0.1600000
        k(    7) = (   0.2000000  -0.5773503   0.0000000), wk =   0.1600000
        k(    8) = (   0.2000000  -0.3464102   0.0000000), wk =   0.1600000
        k(    9) = (   0.4000000  -0.2309401   0.0000000), wk =   0.1600000
        k(   10) = (   0.4000000  -0.0000000   0.0000000), wk =   0.1600000
        k(   11) = (   0.4000000   0.2309401   0.0000000), wk =   0.1600000
        k(   12) = (   0.4000000  -0.6928203   0.0000000), wk =   0.1600000
        k(   13) = (   0.4000000  -0.4618802   0.0000000), wk =   0.1600000

     Check: negative core charge=   -0.000002

     Initial potential from superposition of free atoms

     starting charge  379.99375, renormalised to  380.00000

     negative rho (up, down):  1.148E-02 0.000E+00

     %%%%%%%%%%%%%%%%%%%%%%%%%%%%%%%%%%%%%%%%%%%%%%%%%%%%%%%%%%%%%%%%%%%%%%%%
     %                                                                      %
     % You are using vdW-DF, which was implemented by the Thonhauser group. %
     % Please cite the following two papers that made this development      %
     % possible and the two reviews that describe the various versions:     %
     %                                                                      %
     %   T. Thonhauser et al., PRL 115, 136402 (2015).                      %
     %   T. Thonhauser et al., PRB 76, 125112 (2007).                       %
     %   K. Berland et al., Rep. Prog. Phys. 78, 066501 (2015).             %
     %   D.C. Langreth et al., J. Phys.: Condens. Matter 21, 084203 (2009). %
     %                                                                      %
     %                                                                      %
     % If you are calculating the stress with vdW-DF, please also cite:     %
     %                                                                      %
     %   R. Sabatini et al., J. Phys.: Condens. Matter 24, 424209 (2012).   %
     %                                                                      %
     %%%%%%%%%%%%%%%%%%%%%%%%%%%%%%%%%%%%%%%%%%%%%%%%%%%%%%%%%%%%%%%%%%%%%%%%

     Starting wfcs are  342 randomized atomic wfcs
     Checking if some PAW data can be deallocated...

     Self-consistent Calculation

     iteration #  1     ecut=    60.00 Ry     beta= 0.70
     Davidson diagonalization with overlap
     ethr =  1.00E-02,  avg # of iterations =  2.6

     Threshold (ethr) on eigenvalues was too large:
     Diagonalizing with lowered threshold

     Davidson diagonalization with overlap
     ethr =  5.94E-04,  avg # of iterations =  5.5

[...]

     total energy              =  -27841.94556758 Ry
     estimated scf accuracy    <       2.47335771 Ry

[...]

     iteration #  5     ecut=    60.00 Ry     beta= 0.70
     Davidson diagonalization with overlap
     c_bands:  1 eigenvalues not converged
     c_bands:  1 eigenvalues not converged
     ethr =  2.06E-05,  avg # of iterations =  9.0

[...]

     iteration # 12     ecut=    60.00 Ry     beta= 0.70
     Davidson diagonalization with overlap
     c_bands:  1 eigenvalues not converged
     c_bands:  1 eigenvalues not converged
     ethr =  1.78E-07,  avg # of iterations =  8.5

[...]

     total energy              =  -27842.09478523 Ry
     estimated scf accuracy    <       0.00000123 Ry

     iteration # 22     ecut=    60.00 Ry     beta= 0.70
     Davidson diagonalization with overlap
     ethr =  3.24E-10,  avg # of iterations =  2.0

[...]

     End of self-consistent calculation

          k = 0.0000 0.0000 0.0000 ( 93455 PWs)   bands (ev):

   -19.5431 -11.5149  -9.4376  -7.0970  -5.8043  -5.3115  -5.2126  -5.0285
    -4.7017  -4.6789  -4.6769  -4.6757  -4.6723  -4.6671  -4.6658  -4.6487
    -4.1211  -4.1165  -4.1159  -4.1147  -4.1130  -4.1127  -3.6480  -3.6472
    -3.6434  -3.6397  -3.6389  -3.6375  -3.4377  -3.4288  -3.4272  -3.4267
    -3.4257  -3.4221  -3.2869  -3.1979  -3.1975  -3.1922  -3.1893  -3.1874
    -3.1832  -3.1825  -3.1819  -3.1760  -3.1712  -3.1641  -3.1534  -2.8449
    -2.5818  -2.5811  -2.5523  -2.5506  -2.5042  -2.4976  -2.4938  -2.4936
    -2.4917  -2.4857  -2.3551  -2.3546  -2.2635  -2.2564  -1.7708  -1.7551
    -1.7495  -1.7471  -1.7457  -1.7396  -1.7005  -1.6772  -1.5894  -1.5892
    -1.5606  -1.5602  -1.5504  -1.5477  -1.5340  -1.5273  -1.5264  -1.5234
    -1.5226  -1.5193  -1.4871  -1.4868  -1.4770  -1.3382  -1.3334  -1.3312
    -1.3299  -1.3297  -1.2932  -1.1847  -1.1755  -1.1747  -1.1698  -1.1676
    -1.1663  -1.0808  -1.0807  -0.9849  -0.9847  -0.9296  -0.9272  -0.9146
    -0.9139  -0.8752  -0.8738  -0.8640  -0.8577  -0.7190  -0.7131  -0.7094
    -0.7081  -0.7042  -0.7033  -0.6481  -0.2172  -0.2161  -0.2139  -0.2107
    -0.2097  -0.2085  -0.1586  -0.1536  -0.1407  -0.1372  -0.1369  -0.1295
    -0.0714  -0.0586   0.0282   0.0928   0.1029   0.1041   0.1150   0.1174
     0.2000   0.2439   0.2571   0.2582   0.2618   0.2664   0.2665   0.5162
     0.5176   0.5189   0.5211   0.5238   0.5276   0.5987   0.6004   0.7762
     0.7773   0.7802   0.7870   0.7871   0.8094   0.9485   0.9498   0.9550
     0.9558   0.9565   0.9662   0.9904   0.9926   0.9946   0.9998   1.0013
     1.0551   1.1271   1.1440   1.1451   1.1476   1.1483   1.1515   1.1571
     1.1624   1.2414   1.2443   1.2556   1.2587   1.2590   1.2600   1.2658
     1.2682   1.3528   1.3540   1.3613   1.3637   1.3649   1.3678   1.4602
     1.4625   1.4671   1.4676   1.4783   1.4786   1.5968   1.6863   1.6877
     1.7876   1.7886   1.7984   1.7990   1.8007   1.8059   2.6118   2.6692
     2.6728   2.6774   2.6864   2.6936   2.8426   4.9736   4.9961   5.0022
     5.0078   5.0167   5.0987   5.5631   6.3669   6.5522   6.5529   6.6047
     6.6054   6.6150   6.6153   6.6940

[...]

          k = 0.4000-0.4619 0.0000 ( 93536 PWs)   bands (ev):

   -19.5431 -11.5156  -9.4361  -6.1310  -6.1274  -5.5239  -5.3129  -5.2313
    -5.0296  -4.8728  -4.8395  -4.3566  -4.3493  -4.2209  -4.1865  -4.0790
    -4.0754  -3.9711  -3.9669  -3.8499  -3.8447  -3.8397  -3.8069  -3.8005
    -3.7833  -3.7668  -3.6492  -3.6369  -3.6337  -3.5935  -3.5911  -3.4953
    -3.4072  -3.3804  -3.3234  -3.2836  -3.2218  -3.2210  -3.2068  -3.2053
    -3.1870  -3.0783  -3.0772  -2.9843  -2.9793  -2.8680  -2.7999  -2.7950
    -2.7373  -2.6412  -2.6397  -2.5890  -2.5848  -2.4762  -2.4284  -2.3834
    -2.3796  -2.3588  -2.3157  -2.3092  -2.2818  -2.1806  -2.1773  -2.1492
    -2.1458  -2.1393  -2.1385  -2.1317  -2.0656  -2.0584  -1.9405  -1.9113
    -1.8649  -1.8607  -1.7443  -1.7252  -1.7051  -1.7007  -1.6600  -1.6356
    -1.6131  -1.6005  -1.5293  -1.5047  -1.4992  -1.4891  -1.4601  -1.4343
    -1.3822  -1.3797  -1.3350  -1.2824  -1.2806  -1.2617  -1.2461  -1.1489
    -1.1013  -1.0983  -1.0590  -1.0556  -1.0131  -1.0103  -1.0017  -0.9968
    -0.9642  -0.9619  -0.9168  -0.9129  -0.8822  -0.8705  -0.8624  -0.8601
    -0.8564  -0.8422  -0.8155  -0.7521  -0.7485  -0.7426  -0.5352  -0.5226
    -0.4365  -0.4304  -0.3275  -0.3172  -0.3112  -0.2897  -0.2339  -0.2255
    -0.2209  -0.2022  -0.1946  -0.1180  -0.0868  -0.0810  -0.0152   0.0004
     0.0154   0.0514   0.0727   0.0958   0.1733   0.2665   0.3249   0.3349
     0.3520   0.3607   0.4414   0.4511   0.4561   0.4744   0.4838   0.5073
     0.5283   0.5402   0.6472   0.6522   0.6712   0.7147   0.7214   0.7374
     0.7512   0.7622   0.7827   0.9234   0.9775   1.0075   1.0807   1.0909
     1.1660   1.1702   1.2519   1.2939   1.3012   1.3146   1.4060   1.4227
     1.4801   1.5112   1.5221   1.5297   1.5424   1.5709   1.5862   1.6219
     1.6888   1.6905   1.7151   1.7398   1.7411   1.7452   1.7773   1.8123
     1.9465   1.9517   1.9543   1.9581   1.9654   2.0319   2.1081   2.1466
     2.2837   3.1052   3.1063   3.3192   3.3532   3.4127   3.5043   3.5094
     3.5167   3.9629   4.1151   4.1189   4.5723   4.5951   4.6088   4.7173
     4.7207   4.9339   5.0149   5.0644   5.1463   5.4622   5.5485   5.5579
     6.0388   6.1942   6.1984   6.2576

     the Fermi energy is     1.7230 ev

!    total energy              =  -27842.09478415 Ry

     total all-electron energy =  -1326953.235268 Ry
     estimated scf accuracy    <       0.00000048 Ry
     smearing contrib. (-TS)   =       0.00184545 Ry
     internal energy E=F+TS    =  -27842.09662960 Ry

     The total energy is F=E-TS. E is the sum of the following terms:
     one-electron contribution =  -29617.73578382 Ry
     hartree contribution      =   15113.37817501 Ry
     xc contribution           =    -911.94854888 Ry
     ewald contribution        =   13071.38748746 Ry
     one-center paw contrib.   =  -25497.17795938 Ry

     convergence has been achieved in  22 iterations

[...]

     Forces acting on atoms (cartesian axes, Ry/au):

     atom    1 type  1   force =    -0.00000381   -0.00011883   -0.00514268
     atom    2 type  1   force =    -0.00026719   -0.00003502   -0.00323945
     atom    3 type  1   force =     0.00029179   -0.00009395   -0.00329667
     atom    4 type  1   force =    -0.00006960   -0.00022876   -0.00327330
     atom    5 type  1   force =    -0.00001151    0.00001124   -0.00363112
     atom    6 type  1   force =     0.00011641   -0.00019794   -0.00333036
     atom    7 type  1   force =     0.00015637    0.00020624   -0.00327926
     atom    8 type  1   force =    -0.00013394    0.00018218   -0.00327541
     atom    9 type  1   force =     0.00004746   -0.00004450   -0.00328908
     atom   10 type  1   force =     0.00120895    0.00035668    0.00354329
     atom   11 type  1   force =    -0.00012075    0.00052025    0.00383525
     atom   12 type  1   force =    -0.00083205    0.00011258    0.00297023
     atom   13 type  1   force =     0.00058003   -0.00044637    0.00406677
     atom   14 type  1   force =    -0.00062138   -0.00031415    0.00372143
     atom   15 type  1   force =     0.00007196    0.00051159    0.00221516
     atom   16 type  1   force =    -0.00004753   -0.00099458    0.00376653
     atom   17 type  1   force =     0.00042250   -0.00013287    0.00248422
     atom   18 type  1   force =    -0.00034516   -0.00019722    0.00256196
     atom   19 type  1   force =     0.00007083    0.00031649    0.00040942
     atom   20 type  1   force =     0.00002705   -0.00001501   -0.00040418
     atom   21 type  1   force =     0.00015842   -0.00009150   -0.00040461
     atom   22 type  1   force =    -0.00000383   -0.00000840    0.00010430
     atom   23 type  1   force =     0.00003112    0.00011639   -0.00041671
     atom   24 type  1   force =     0.00020610   -0.00003165    0.00004666
     atom   25 type  1   force =    -0.00018064   -0.00007678    0.00027975
     atom   26 type  1   force =     0.00032740   -0.00004527    0.00033492
     atom   27 type  1   force =     0.00009732    0.00001885    0.00011622
     atom   28 type  1   force =     0.00015408    0.00014755   -0.00000305
     atom   29 type  1   force =     0.00023526    0.00004621    0.00061849
     atom   30 type  1   force =     0.00012919    0.00000101    0.00054548
     atom   31 type  1   force =     0.00016753    0.00007766    0.00020568
     atom   32 type  1   force =     0.00001931   -0.00003829    0.00058840
     atom   33 type  1   force =     0.00024733    0.00011506    0.00027939
     atom   34 type  1   force =     0.00003760   -0.00004835    0.00039782
     atom   35 type  1   force =     0.00029845    0.00003433    0.00037743
     atom   36 type  1   force =     0.00010992   -0.00003473    0.00007055
     atom   37 type  2   force =    -0.00153282    0.00013415   -0.00114977
     atom   38 type  2   force =     0.00370283    0.00159731    0.00482347
     atom   39 type  3   force =    -0.00032586    0.00039886   -0.00034406
     atom   40 type  3   force =    -0.00061436    0.00009803    0.00021175
     atom   41 type  3   force =    -0.00010544   -0.00037381   -0.00025051
     atom   42 type  3   force =     0.00007429   -0.00042577   -0.00008037
     atom   43 type  3   force =     0.00103320    0.00106563    0.00024546
     atom   44 type  4   force =    -0.00097561    0.00002919   -0.00007632
     atom   45 type  3   force =    -0.00383122   -0.00210376   -0.00393313

     Total force =     0.009234     Total SCF correction =     0.001328
     SCF correction compared to forces is large: reduce conv_thr to get better values

[...]

     negative rho (up, down):  1.273E-02 0.000E+00

     negative rho (up, down):  1.273E-02 0.000E+00
 BEEFens 2000 ensemble energies
             -0.610800753122871E+02
             -0.362012070503852E+01
             -0.159029413070372E+02
              0.432280861941229E+02
             -0.222605048006666E+02
             -0.206300727004706E+02
             -0.355612182098023E+02
             -0.871110396497804E+02
             -0.467270403849421E+02
             -0.475102519569136E+02
             -0.371534377318981E+02
              0.234049916456416E+01
              0.407311292965994E+01
              0.758181961170163E+01
              0.267912799688622E+01
              0.477945896722047E+02
             -0.210092089087157E+02
             -0.230617404754434E+02
              0.194131152461555E+02
             -0.113106593117532E+03
              0.540038629629725E+02
             -0.290930211722550E+02
             -0.338186817029620E+01
             -0.114826841035083E+02
             -0.879580256306826E+01
             -0.465459471863548E+01
              0.888402524286512E+02
             -0.188852705717226E+02
             -0.904962731493913E+01
             -0.521879941397864E+02
              0.819608505667434E+02
             -0.187320304453349E+02
             -0.377466530623491E+02
              0.250316151966991E+02
             -0.286853481695312E+01
              0.165821821688349E+02
             -0.484942515838702E+01
              0.108098934598095E+02
              0.290681058321882E+02
             -0.103896958051236E+03
              0.562085786364547E+02
              0.143223295326400E+02
             -0.181920355624749E+01
             -0.363277647140633E+02
              0.123936658186008E+02
             -0.148275299319606E+02
              0.401548424575107E+02
              0.367077118646399E+02
             -0.309254795976686E+02
             -0.276848618953832E+02
             -0.330121031880552E+02
             -0.354594878100676E+02
              0.137843730424472E+02
             -0.494118213094290E+02
              0.116765633963635E+02
              0.627062709297086E+02
              0.640271857791331E+02
              0.358070599221373E+02
              0.155192586742620E+02
              0.272788466657188E+02
[...]
             -0.710961221090665E+02
             -0.827056249758357E+00
             -0.246652882560860E+01
             -0.889098867905386E+01
             -0.180194552660049E+01
             -0.656978804027343E+02
             -0.211024780845482E+02
              0.548324267180042E+01
              0.909709088666108E+01
              0.472097152829653E+02
             -0.400350997942469E+02
              0.660517997397353E+02
             -0.427705265919826E+02
              0.212285379905983E+02
              0.353004736104368E+02

 BEEF-vdW xc energy contributions
           1 :   -787.230337272667
           2 :    722.650039643468
           3 :   -611.147515216871
           4 :    480.319814455382
           5 :   -357.851528147130
           6 :    263.452162237335
           7 :   -204.576750421517
           8 :    176.565699837065
           9 :   -166.705835663107
          10 :    160.355568136697
          11 :   -146.693174116084
          12 :    121.930839105297
          13 :   -89.1434938909750
          14 :    55.3501924443505
          15 :   -27.5431213812749
          16 :    9.45138954889228
          17 :  -0.277015520152872
          18 :   -4.35260164623787
          19 :    9.91651584787917
          20 :   -20.3131828147307
          21 :    36.1816891724784
          22 :   -54.8919119728979
          23 :    72.0387425077264
          24 :   -83.6333180014376
          25 :    87.9233102146524
          26 :   -86.0359970144974
          27 :    81.2336196711852
          28 :   -77.2403323328823
          29 :    76.4803060969127
          30 :   -79.0550189840269
          31 :   -86.4179835413148
          32 :   -66.1046512182867

     Writing output data file ./pwscf.save/

     General routines

     Parallel routines

   This run was terminated on:  12:29:34  27Sep2022

   JOB DONE.