     Program PWSCF v.6.7MaX starts on 26Sep2022 at 21:11:17

     Reading input from ch4-ensemble.in
Warning: card &CELL ignored
Warning: card / ignored

     Current dimensions of program PWSCF are:
     Max number of different atomic species (ntypx) = 10
     Max number of k-points (npk) =  40000
     Max angular momentum in pseudopotentials (lmaxx) =  3
     file Pt.pbe-n-kjpaw_psl.1.0.0.UPF: wavefunction(s)  6S 5D renormalized
     file C.pbe-n-kjpaw_psl.1.0.0.UPF: wavefunction(s)  2S 2P renormalized
     file H.pbe-kjpaw_psl.1.0.0.UPF: wavefunction(s)  1S renormalized

     IMPORTANT: XC functional enforced from input :
     Exchange-correlation= BEEF-VDW
                           (   1   4  43  14   2   0   0)
     Any further DFT definition will be discarded
     Please, verify this is what you really want

     Subspace diagonalization in iterative solution of the eigenvalue problem:
     a serial algorithm will be used

     bravais-lattice index     =            0
     lattice parameter (alat)  =      16.0349  a.u.
     unit-cell volume          =   11862.9602 (a.u.)^3
     number of atoms/cell      =           41
     number of atomic types    =            3
     number of electrons       =       368.00
     number of Kohn-Sham states=          221
     kinetic-energy cutoff     =      60.0000  Ry
     charge density cutoff     =     240.0000  Ry
     scf convergence threshold =      1.0E-06
     mixing beta               =       0.7000
     number of iterations used =            8  local-TF  mixing
     Exchange-correlation= BEEF-VDW
                           (   1   4  43  14   2   0   0)

     celldm(1)=  16.034858  celldm(2)=   0.000000  celldm(3)=   0.000000
     celldm(4)=   0.000000  celldm(5)=   0.000000  celldm(6)=   0.000000

     crystal axes: (cart. coord. in units of alat)
               a(1) = (   1.000000   0.000000   0.000000 )
               a(2) = (   0.500000   0.866025   0.000000 )
               a(3) = (   0.000000   0.000000   3.322516 )

     reciprocal axes: (cart. coord. in units 2 pi/alat)
               b(1) = (  1.000000 -0.577350  0.000000 )
               b(2) = (  0.000000  1.154701  0.000000 )
               b(3) = (  0.000000  0.000000  0.300977 )

     PseudoPot. # 1 for Pt read from file:
     /users/bkreitz1/quantum-espresso/potentials/Pt.pbe-n-kjpaw_psl.1.0.0.UPF
     MD5 check sum: 04dc8a03c51ece93fc7b5889c2958091
     Pseudo is Projector augmented-wave + core cor, Zval = 10.0
     Generated using 'atomic' code by A. Dal Corso  v.6.7MaX
     Shape of augmentation charge: PSQ
     Using radial grid of 1277 points,  6 beta functions with:
                l(1) =   0
                l(2) =   0
                l(3) =   1
                l(4) =   1
                l(5) =   2
                l(6) =   2
     Q(r) pseudized with 0 coefficients

     PseudoPot. # 2 for C  read from file:
     /users/bkreitz1/quantum-espresso/potentials/C.pbe-n-kjpaw_psl.1.0.0.UPF
     MD5 check sum: a169b0ebad56f5ec0d79c4633f80bf22
     Pseudo is Projector augmented-wave + core cor, Zval =  4.0
     Generated using 'atomic' code by A. Dal Corso  v.6.7MaX
     Shape of augmentation charge: PSQ
     Using radial grid of 1073 points,  4 beta functions with:
                l(1) =   0
                l(2) =   0
                l(3) =   1
                l(4) =   1
     Q(r) pseudized with 0 coefficients

     PseudoPot. # 3 for H  read from file:
     /users/bkreitz1/quantum-espresso/potentials/H.pbe-kjpaw_psl.1.0.0.UPF
     MD5 check sum: ae98473e6dc62675f0d0baffdab24f65
     Pseudo is Projector augmented-wave, Zval =  1.0
     Generated using 'atomic' code by A. Dal Corso  v.6.7MaX
     Shape of augmentation charge: PSQ
     Using radial grid of  929 points,  2 beta functions with:
                l(1) =   0
                l(2) =   0
     Q(r) pseudized with 0 coefficients

     atomic species   valence    mass     pseudopotential
        Pt            10.00   195.08400     Pt( 1.00)
        C              4.00    12.01100     C ( 1.00)
        H              1.00     1.00800     H ( 1.00)

     No symmetry found

   Cartesian axes

     site n.     atom                  positions (alat units)
         1           Pt  tau(   1) = (   0.0000000   0.0000000   1.0017346  )
         2           Pt  tau(   2) = (   0.3333333   0.0000000   1.0017346  )
         3           Pt  tau(   3) = (   0.6666667   0.0000000   1.0017346  )
         4           Pt  tau(   4) = (   0.1666667   0.2886751   1.0017346  )
         5           Pt  tau(   5) = (   0.5000000   0.2886751   1.0017346  )
         6           Pt  tau(   6) = (   0.8333333   0.2886751   1.0017346  )
         7           Pt  tau(   7) = (   0.3333333   0.5773503   1.0017346  )
         8           Pt  tau(   8) = (   0.6666667   0.5773503   1.0017346  )
         9           Pt  tau(   9) = (   1.0000000   0.5773503   1.0017346  )
        10           Pt  tau(  10) = (   0.1666667   0.0962250   1.2739001  )
        11           Pt  tau(  11) = (   0.5000000   0.0962250   1.2739001  )
        12           Pt  tau(  12) = (   0.8333333   0.0962250   1.2739001  )
        13           Pt  tau(  13) = (   0.3333333   0.3849002   1.2739001  )
        14           Pt  tau(  14) = (   0.6666667   0.3849002   1.2739001  )
        15           Pt  tau(  15) = (   1.0000000   0.3849002   1.2739001  )
        16           Pt  tau(  16) = (   0.5000000   0.6735753   1.2739001  )
        17           Pt  tau(  17) = (   0.8333333   0.6735753   1.2739001  )
        18           Pt  tau(  18) = (   1.1666667   0.6735753   1.2739001  )
        19           Pt  tau(  19) = (   0.0000253   0.1923339   1.5428401  )
        20           Pt  tau(  20) = (   0.3333048   0.1924329   1.5425174  )
        21           Pt  tau(  21) = (   0.6668665   0.1923682   1.5425797  )
        22           Pt  tau(  22) = (   0.1667394   0.4811157   1.5427810  )
        23           Pt  tau(  23) = (   0.5000855   0.4812926   1.5425473  )
        24           Pt  tau(  24) = (   0.8333641   0.4810948   1.5429555  )
        25           Pt  tau(  25) = (   0.3335208   0.7696565   1.5427299  )
        26           Pt  tau(  26) = (   0.6665348   0.7696039   1.5425602  )
        27           Pt  tau(  27) = (   1.0001453   0.7696304   1.5425684  )
        28           Pt  tau(  28) = (   0.0000687  -0.0001146   1.8170730  )
        29           Pt  tau(  29) = (   0.3332223  -0.0003859   1.8156582  )
        30           Pt  tau(  30) = (   0.6669874  -0.0002337   1.8163781  )
        31           Pt  tau(  31) = (   0.1666413   0.2887162   1.8167902  )
        32           Pt  tau(  32) = (   0.5002920   0.2889136   1.8157643  )
        33           Pt  tau(  33) = (   0.8335254   0.2885543   1.8169938  )
        34           Pt  tau(  34) = (   0.3334253   0.5772414   1.8171491  )
        35           Pt  tau(  35) = (   0.6667195   0.5772652   1.8170938  )
        36           Pt  tau(  36) = (   1.0001534   0.5771729   1.8170092  )
        37           C   tau(  37) = (   0.4378275   0.1258357   2.2733460  )
        38           H   tau(  38) = (   0.3428282   0.0522054   2.3185747  )
        39           H   tau(  39) = (   0.5500877   0.0851533   2.3207923  )
        40           H   tau(  40) = (   0.4182396   0.2481062   2.3073394  )
        41           H   tau(  41) = (   0.4409037   0.1171916   2.1463497  )

     number of k points=    13  Marzari-Vanderbilt smearing, width (Ry)=  0.0200
                       cart. coord. in units 2pi/alat
        k(    1) = (   0.0000000   0.0000000   0.0000000), wk =   0.0800000
        k(    2) = (   0.0000000   0.2309401   0.0000000), wk =   0.1600000
        k(    3) = (   0.0000000   0.4618802   0.0000000), wk =   0.1600000
        k(    4) = (   0.2000000  -0.1154701   0.0000000), wk =   0.1600000
        k(    5) = (   0.2000000   0.1154701   0.0000000), wk =   0.1600000
        k(    6) = (   0.2000000   0.3464102   0.0000000), wk =   0.1600000
        k(    7) = (   0.2000000  -0.5773503   0.0000000), wk =   0.1600000
        k(    8) = (   0.2000000  -0.3464102   0.0000000), wk =   0.1600000
        k(    9) = (   0.4000000  -0.2309401   0.0000000), wk =   0.1600000
        k(   10) = (   0.4000000  -0.0000000   0.0000000), wk =   0.1600000
        k(   11) = (   0.4000000   0.2309401   0.0000000), wk =   0.1600000
        k(   12) = (   0.4000000  -0.6928203   0.0000000), wk =   0.1600000
        k(   13) = (   0.4000000  -0.4618802   0.0000000), wk =   0.1600000

     Check: negative core charge=   -0.000001

     Initial potential from superposition of free atoms

     starting charge  367.99381, renormalised to  368.00000

     negative rho (up, down):  1.143E-02 0.000E+00

     %%%%%%%%%%%%%%%%%%%%%%%%%%%%%%%%%%%%%%%%%%%%%%%%%%%%%%%%%%%%%%%%%%%%%%%%
     %                                                                      %
     % You are using vdW-DF, which was implemented by the Thonhauser group. %
     % Please cite the following two papers that made this development      %
     % possible and the two reviews that describe the various versions:     %
     %                                                                      %
     %   T. Thonhauser et al., PRL 115, 136402 (2015).                      %
     %   T. Thonhauser et al., PRB 76, 125112 (2007).                       %
     %   K. Berland et al., Rep. Prog. Phys. 78, 066501 (2015).             %
     %   D.C. Langreth et al., J. Phys.: Condens. Matter 21, 084203 (2009). %
     %                                                                      %
     %                                                                      %
     % If you are calculating the stress with vdW-DF, please also cite:     %
     %                                                                      %
     %   R. Sabatini et al., J. Phys.: Condens. Matter 24, 424209 (2012).   %
     %                                                                      %
     %%%%%%%%%%%%%%%%%%%%%%%%%%%%%%%%%%%%%%%%%%%%%%%%%%%%%%%%%%%%%%%%%%%%%%%%

     Starting wfcs are  332 randomized atomic wfcs
     Checking if some PAW data can be deallocated...

     Self-consistent Calculation

     iteration #  1     ecut=    60.00 Ry     beta= 0.70
     Davidson diagonalization with overlap
     ethr =  1.00E-02,  avg # of iterations =  3.0

     Threshold (ethr) on eigenvalues was too large:
     Diagonalizing with lowered threshold

     Davidson diagonalization with overlap
     ethr =  5.53E-04,  avg # of iterations =  5.0

[...]

     total energy              =  -27778.03520769 Ry
     estimated scf accuracy    <       2.24906893 Ry

[...]

     iteration #  9     ecut=    60.00 Ry     beta= 0.70
     Davidson diagonalization with overlap
     c_bands:  1 eigenvalues not converged
     c_bands:  2 eigenvalues not converged
     c_bands:  1 eigenvalues not converged
     ethr =  3.04E-06,  avg # of iterations = 10.6

[...]

     iteration # 16     ecut=    60.00 Ry     beta= 0.70
     Davidson diagonalization with overlap
     c_bands:  1 eigenvalues not converged
     ethr =  3.09E-08,  avg # of iterations =  8.1

[...]

     total energy              =  -27778.20519451 Ry
     estimated scf accuracy    <       0.00000153 Ry

     iteration # 23     ecut=    60.00 Ry     beta= 0.70
     Davidson diagonalization with overlap
     ethr =  4.17E-10,  avg # of iterations =  2.2

[...]

     End of self-consistent calculation

          k = 0.0000 0.0000 0.0000 ( 93155 PWs)   bands (ev):

   -10.3395  -7.4917  -6.1817  -5.1054  -5.0718  -5.0707  -5.0701  -5.0679
    -5.0675  -5.0669  -5.0572  -4.5127  -4.5124  -4.5120  -4.5108  -4.5102
    -4.5101  -4.0388  -4.0384  -4.0375  -4.0360  -4.0358  -4.0349  -3.8250
    -3.8222  -3.8214  -3.8203  -3.8202  -3.8190  -3.5943  -3.5933  -3.5883
    -3.5869  -3.5761  -3.5745  -3.5741  -3.5741  -3.5737  -3.5728  -3.5564
    -3.5557  -2.9777  -2.9774  -2.9456  -2.9452  -2.9045  -2.8898  -2.8897
    -2.8879  -2.8866  -2.8862  -2.7524  -2.7502  -2.7404  -2.6718  -2.6539
    -2.6466  -2.6438  -2.1419  -2.1417  -2.1401  -2.1387  -2.1384  -2.1338
    -2.0762  -1.9859  -1.9858  -1.9548  -1.9545  -1.9423  -1.9409  -1.9237
    -1.9209  -1.9209  -1.9201  -1.9181  -1.9174  -1.9136  -1.8838  -1.8835
    -1.7278  -1.7266  -1.7253  -1.7237  -1.7234  -1.7227  -1.5740  -1.5724
    -1.5717  -1.5686  -1.5679  -1.5666  -1.4741  -1.4740  -1.3755  -1.3755
    -1.3118  -1.3116  -1.3003  -1.2986  -1.2651  -1.2647  -1.2515  -1.2488
    -1.1004  -1.0999  -1.0975  -1.0958  -1.0952  -1.0939  -1.0778  -0.6073
    -0.6066  -0.6056  -0.6034  -0.6030  -0.6023  -0.5316  -0.5308  -0.5291
    -0.5281  -0.5263  -0.5251  -0.4599  -0.4593  -0.2860  -0.2858  -0.2834
    -0.2821  -0.2802  -0.2752  -0.1432  -0.1414  -0.1393  -0.1375  -0.1307
    -0.1306   0.1248   0.1258   0.1260   0.1277   0.1277   0.1300   0.2060
     0.2062   0.3860   0.3874   0.3882   0.3895   0.3899   0.3917   0.5573
     0.5580   0.5597   0.5605   0.5616   0.5619   0.6039   0.6047   0.6065
     0.6069   0.6071   0.6138   0.7363   0.7371   0.7562   0.7572   0.7574
     0.7576   0.7582   0.7584   0.8594   0.8621   0.8638   0.8646   0.8655
     0.8661   0.8705   0.8706   0.9627   0.9652   0.9671   0.9679   0.9684
     0.9699   1.0695   1.0702   1.0760   1.0768   1.0781   1.0787   1.1686
     1.2943   1.2953   1.4014   1.4019   1.4027   1.4038   1.4040   1.4052
     2.2555   2.2948   2.2949   2.2957   2.2960   2.2971   2.3178   4.6235
     4.6245   4.6250   4.6272   4.6303   4.6512   5.8983   6.1610   6.1612
     6.2159   6.2169   6.2172   6.2182   6.2938

[...]

          k = 0.4000-0.4619 0.0000 ( 93088 PWs)   bands (ev):

   -10.3394  -6.5248  -6.5220  -5.9157  -5.2654  -5.2626  -4.7521  -4.7485
    -4.6173  -4.5832  -4.4741  -4.4733  -4.3660  -4.3651  -4.2431  -4.2399
    -4.2379  -4.2019  -4.1997  -4.1710  -4.1681  -4.0432  -4.0329  -4.0317
    -3.9890  -3.9879  -3.8884  -3.7954  -3.7768  -3.7129  -3.6168  -3.6161
    -3.6008  -3.5993  -3.5831  -3.4706  -3.4692  -3.3773  -3.3739  -3.2014
    -3.1925  -3.1337  -3.0368  -3.0322  -2.9822  -2.9811  -2.8794  -2.8228
    -2.7930  -2.7736  -2.7623  -2.7430  -2.7090  -2.7014  -2.6757  -2.6663
    -2.6525  -2.5708  -2.5690  -2.5402  -2.5388  -2.5328  -2.5317  -2.5190
    -2.4588  -2.4551  -2.3258  -2.3033  -2.2537  -2.2521  -2.1367  -2.0990
    -2.0968  -2.0932  -2.0485  -2.0074  -2.0068  -1.9167  -1.8954  -1.8918
    -1.8872  -1.8533  -1.8196  -1.7767  -1.7703  -1.7304  -1.6745  -1.6718
    -1.6540  -1.6511  -1.5421  -1.4964  -1.4939  -1.4500  -1.4489  -1.4067
    -1.4061  -1.3901  -1.3864  -1.3590  -1.3579  -1.3079  -1.3062  -1.2763
    -1.2598  -1.2580  -1.2571  -1.2546  -1.2364  -1.2071  -1.1405  -1.1364
    -1.1353  -0.9282  -0.9196  -0.8283  -0.8269  -0.7196  -0.7080  -0.7061
    -0.6796  -0.6188  -0.6168  -0.6158  -0.5940  -0.5884  -0.5061  -0.4731
    -0.4711  -0.4041  -0.3836  -0.3762  -0.3209  -0.3146  -0.2679  -0.1273
    -0.0625  -0.0613  -0.0416  -0.0414   0.0524   0.0577   0.0598   0.0814
     0.0947   0.1009   0.1371   0.1381   0.2560   0.2574   0.2677   0.3240
     0.3265   0.3455   0.3556   0.3708   0.3721   0.5324   0.5819   0.6087
     0.6903   0.6932   0.7731   0.7738   0.8597   0.9010   0.9069   0.9087
     1.0142   1.0148   1.0869   1.1184   1.1272   1.1368   1.1389   1.1831
     1.1844   1.2188   1.2950   1.2955   1.3202   1.3484   1.3485   1.3531
     1.3597   1.4126   1.5541   1.5598   1.5601   1.5605   1.5624   1.6371
     1.7040   1.7513   1.8919   2.7109   2.7113   2.9522   2.9668   2.9858
     3.1150   3.1166   3.1241   3.5670   3.7235   3.7238   4.1837   4.2115
     4.2146   4.3288   4.3302   4.5427   4.6268   4.7259   4.7578   5.0702
     5.1652   5.1659   5.7075   5.8051   5.8069

     the Fermi energy is     1.3266 ev

!    total energy              =  -27778.20519423 Ry

     total all-electron energy =  -1326722.734695 Ry
     estimated scf accuracy    <       0.00000027 Ry
     smearing contrib. (-TS)   =       0.00244982 Ry
     internal energy E=F+TS    =  -27778.20764405 Ry

     The total energy is F=E-TS. E is the sum of the following terms:
     one-electron contribution =  -29095.27013376 Ry
     hartree contribution      =   14841.82832347 Ry
     xc contribution           =    -897.82823413 Ry
     ewald contribution        =   12853.55891318 Ry
     one-center paw contrib.   =  -25480.49651280 Ry

     convergence has been achieved in  23 iterations

[...]

     Forces acting on atoms (cartesian axes, Ry/au):

     atom    1 type  1   force =    -0.00005453   -0.00009001   -0.00326364
     atom    2 type  1   force =     0.00004902    0.00005528   -0.00322932
     atom    3 type  1   force =    -0.00001787    0.00000137   -0.00320557
     atom    4 type  1   force =     0.00000546    0.00002684   -0.00317629
     atom    5 type  1   force =    -0.00002479   -0.00003103   -0.00316165
     atom    6 type  1   force =    -0.00000793    0.00002787   -0.00315190
     atom    7 type  1   force =     0.00004939    0.00005219   -0.00326087
     atom    8 type  1   force =    -0.00006794   -0.00001052   -0.00322439
     atom    9 type  1   force =     0.00000903   -0.00003972   -0.00315733
     atom   10 type  1   force =    -0.00007241    0.00011341    0.00313877
     atom   11 type  1   force =     0.00003667   -0.00001359    0.00301547
     atom   12 type  1   force =     0.00011357    0.00003804    0.00327256
     atom   13 type  1   force =    -0.00008798   -0.00001963    0.00310942
     atom   14 type  1   force =     0.00026288   -0.00004228    0.00318919
     atom   15 type  1   force =    -0.00007545   -0.00002572    0.00347467
     atom   16 type  1   force =    -0.00007186   -0.00002789    0.00319265
     atom   17 type  1   force =     0.00014762   -0.00026329    0.00319592
     atom   18 type  1   force =     0.00003933   -0.00013849    0.00325615
     atom   19 type  1   force =     0.00009952    0.00006032   -0.00006683
     atom   20 type  1   force =     0.00012028    0.00002425   -0.00018103
     atom   21 type  1   force =    -0.00021769   -0.00001920   -0.00009450
     atom   22 type  1   force =     0.00007965   -0.00006638    0.00008706
     atom   23 type  1   force =    -0.00017623   -0.00031302    0.00020578
     atom   24 type  1   force =     0.00006068   -0.00007565   -0.00020239
     atom   25 type  1   force =    -0.00019035    0.00005396    0.00005803
     atom   26 type  1   force =     0.00016836    0.00023864    0.00008825
     atom   27 type  1   force =    -0.00003521    0.00016293   -0.00010456
     atom   28 type  1   force =     0.00010200    0.00002660   -0.00016907
     atom   29 type  1   force =     0.00022642    0.00027186    0.00048144
     atom   30 type  1   force =    -0.00029459    0.00015854    0.00009769
     atom   31 type  1   force =     0.00014780   -0.00019142   -0.00018396
     atom   32 type  1   force =    -0.00019255   -0.00035653    0.00037284
     atom   33 type  1   force =    -0.00005888    0.00003364   -0.00008116
     atom   34 type  1   force =     0.00003905   -0.00003917   -0.00034571
     atom   35 type  1   force =     0.00007337   -0.00004093   -0.00020678
     atom   36 type  1   force =    -0.00004431    0.00005524   -0.00015885
     atom   37 type  2   force =     0.00117664   -0.00017865    0.01034759
     atom   38 type  3   force =    -0.00012700    0.00067024    0.00061243
     atom   39 type  3   force =    -0.00069857    0.00053692    0.00073960
     atom   40 type  3   force =    -0.00030445   -0.00016849    0.00047963
     atom   41 type  3   force =    -0.00018616   -0.00045654   -0.01178933

     Total force =     0.015871     Total SCF correction =     0.001341

[...]

     negative rho (up, down):  1.297E-02 0.000E+00

     negative rho (up, down):  1.297E-02 0.000E+00
 BEEFens 2000 ensemble energies
             -0.600400967442924E+02
             -0.356672852934111E+01
             -0.156886800339202E+02
              0.425078727305373E+02
             -0.219328815362464E+02
             -0.203684591777115E+02
             -0.347788748342423E+02
             -0.855383165640018E+02
             -0.461575136386562E+02
             -0.469092643957841E+02
             -0.365503104849309E+02
              0.222430874011688E+01
              0.400913493395356E+01
              0.768274676698923E+01
              0.260828685507119E+01
              0.470266251747412E+02
             -0.206913546260680E+02
             -0.229003095138653E+02
              0.190572035438818E+02
             -0.111306332668820E+03
              0.530613341216793E+02
             -0.287935775775924E+02
             -0.328349520912947E+01
             -0.113374243951212E+02
             -0.883968389272684E+01
             -0.456486295878241E+01
              0.874285097221083E+02
             -0.184821242812006E+02
             -0.890582655403318E+01
             -0.512649987033898E+02
              0.808683723293129E+02
             -0.186668731758096E+02
             -0.370761908253803E+02
              0.247252403258160E+02
             -0.282233352574724E+01
              0.161211200172165E+02
             -0.488566669836558E+01
              0.108186224198798E+02
              0.284775914325589E+02
             -0.102280580535012E+03
              0.553237437080355E+02
              0.141129603225182E+02
             -0.161404843535502E+01
             -0.358255199537006E+02
              0.122079947733611E+02
             -0.145181529158666E+02
              0.393365559396483E+02
              0.361404480282040E+02
             -0.306264535225654E+02
             -0.271724786233389E+02
             -0.325305497146666E+02
             -0.348640860726910E+02
              0.134519042666884E+02
             -0.485558235270661E+02
              0.114024709668255E+02
              0.617082633451780E+02
              0.627884770660885E+02
              0.352986005095027E+02
              0.152441638438608E+02
              0.267428424147581E+02
[...]
             -0.698731767495576E+02
             -0.903258380886655E+00
             -0.248594643382422E+01
             -0.870861086106288E+01
             -0.186225246952000E+01
             -0.646443859219843E+02
             -0.209580851661473E+02
              0.527962458801458E+01
              0.887682146055226E+01
              0.463848960331142E+02
             -0.393329215632230E+02
              0.652089878255955E+02
             -0.421399040387443E+02
              0.207798017679914E+02
              0.345885550517604E+02

 BEEF-vdW xc energy contributions
           1 :   -775.404032240070
           2 :    712.560285585708
           3 :   -603.804435559994
           4 :    475.791489884843
           5 :   -355.556394618792
           6 :    262.600883131127
           7 :   -204.490963107531
           8 :    176.809318802164
           9 :   -167.075368431846
          10 :    160.799349274170
          11 :   -147.213394562767
          12 :    122.508040086209
          13 :   -89.7114846141404
          14 :    55.8271647095966
          15 :   -27.8784666198216
          16 :    9.64602957673685
          17 :  -0.366860733489489
          18 :   -4.32932696147930
          19 :    9.94287441286633
          20 :   -20.3974655561559
          21 :    36.3421504571282
          22 :   -55.1357147147011
          23 :    72.3538522741183
          24 :   -83.9982212800411
          25 :    88.3234904785754
          26 :   -86.4742873131322
          27 :    81.7271993201761
          28 :   -77.8001098070083
          29 :    77.0836477379547
          30 :   -79.6318386395212
          31 :   -84.9230306911599
          32 :   -65.1250059450309

     Writing output data file ./pwscf.save/

     General routines

     Parallel routines

   This run was terminated on:   1:23:55  27Sep2022

   JOB DONE.