     Program PWSCF v.6.7MaX starts on 20Dec2022 at 15:46:30

     Reading input from chc-ensemble.in
Warning: card &CELL ignored
Warning: card / ignored

     Current dimensions of program PWSCF are:
     Max number of different atomic species (ntypx) = 10
     Max number of k-points (npk) =  40000
     Max angular momentum in pseudopotentials (lmaxx) =  3
     file Pt.pbe-n-kjpaw_psl.1.0.0.UPF: wavefunction(s)  6S 5D renormalized
     file C.pbe-n-kjpaw_psl.1.0.0.UPF: wavefunction(s)  2S 2P renormalized
     file H.pbe-kjpaw_psl.1.0.0.UPF: wavefunction(s)  1S renormalized

     IMPORTANT: XC functional enforced from input :
     Exchange-correlation= BEEF-VDW
                           (   1   4  43  14   2   0   0)
     Any further DFT definition will be discarded
     Please, verify this is what you really want

     Subspace diagonalization in iterative solution of the eigenvalue problem:
     a serial algorithm will be used

     bravais-lattice index     =            0
     lattice parameter (alat)  =      16.0349  a.u.
     unit-cell volume          =   11148.8284 (a.u.)^3
     number of atoms/cell      =           39
     number of atomic types    =            3
     number of electrons       =       369.00
     number of Kohn-Sham states=          222
     kinetic-energy cutoff     =      60.0000  Ry
     charge density cutoff     =     240.0000  Ry
     scf convergence threshold =      1.0E-06
     mixing beta               =       0.7000
     number of iterations used =            8  local-TF  mixing
     Exchange-correlation= BEEF-VDW
                           (   1   4  43  14   2   0   0)

     celldm(1)=  16.034858  celldm(2)=   0.000000  celldm(3)=   0.000000
     celldm(4)=   0.000000  celldm(5)=   0.000000  celldm(6)=   0.000000

     crystal axes: (cart. coord. in units of alat)
               a(1) = (   1.000000   0.000000   0.000000 )
               a(2) = (   0.500000   0.866025   0.000000 )
               a(3) = (   0.000000   0.000000   3.122506 )

     reciprocal axes: (cart. coord. in units 2 pi/alat)
               b(1) = (  1.000000 -0.577350  0.000000 )
               b(2) = (  0.000000  1.154701  0.000000 )
               b(3) = (  0.000000  0.000000  0.320256 )

     PseudoPot. # 1 for Pt read from file:
     /users/bkreitz1/quantum-espresso/potentials/Pt.pbe-n-kjpaw_psl.1.0.0.UPF
     MD5 check sum: 04dc8a03c51ece93fc7b5889c2958091
     Pseudo is Projector augmented-wave + core cor, Zval = 10.0
     Generated using 'atomic' code by A. Dal Corso  v.6.7MaX
     Shape of augmentation charge: PSQ
     Using radial grid of 1277 points,  6 beta functions with:
                l(1) =   0
                l(2) =   0
                l(3) =   1
                l(4) =   1
                l(5) =   2
                l(6) =   2
     Q(r) pseudized with 0 coefficients

     PseudoPot. # 2 for C  read from file:
     /users/bkreitz1/quantum-espresso/potentials/C.pbe-n-kjpaw_psl.1.0.0.UPF
     MD5 check sum: a169b0ebad56f5ec0d79c4633f80bf22
     Pseudo is Projector augmented-wave + core cor, Zval =  4.0
     Generated using 'atomic' code by A. Dal Corso  v.6.7MaX
     Shape of augmentation charge: PSQ
     Using radial grid of 1073 points,  4 beta functions with:
                l(1) =   0
                l(2) =   0
                l(3) =   1
                l(4) =   1
     Q(r) pseudized with 0 coefficients

     PseudoPot. # 3 for H  read from file:
     /users/bkreitz1/quantum-espresso/potentials/H.pbe-kjpaw_psl.1.0.0.UPF
     MD5 check sum: ae98473e6dc62675f0d0baffdab24f65
     Pseudo is Projector augmented-wave, Zval =  1.0
     Generated using 'atomic' code by A. Dal Corso  v.6.7MaX
     Shape of augmentation charge: PSQ
     Using radial grid of  929 points,  2 beta functions with:
                l(1) =   0
                l(2) =   0
     Q(r) pseudized with 0 coefficients

     atomic species   valence    mass     pseudopotential
        Pt            10.00   195.08400     Pt( 1.00)
        C              4.00    12.01100     C ( 1.00)
        H              1.00     1.00800     H ( 1.00)

     No symmetry found

   Cartesian axes

     site n.     atom                  positions (alat units)
         1           Pt  tau(   1) = (   0.0000000   0.0000000   1.0017346  )
         2           Pt  tau(   2) = (   0.3333333   0.0000000   1.0017346  )
         3           Pt  tau(   3) = (   0.6666667   0.0000000   1.0017346  )
         4           Pt  tau(   4) = (   0.1666667   0.2886751   1.0017346  )
         5           Pt  tau(   5) = (   0.5000000   0.2886751   1.0017346  )
         6           Pt  tau(   6) = (   0.8333333   0.2886751   1.0017346  )
         7           Pt  tau(   7) = (   0.3333333   0.5773503   1.0017346  )
         8           Pt  tau(   8) = (   0.6666667   0.5773503   1.0017346  )
         9           Pt  tau(   9) = (   1.0000000   0.5773503   1.0017346  )
        10           Pt  tau(  10) = (   0.1666667   0.0962250   1.2739001  )
        11           Pt  tau(  11) = (   0.5000000   0.0962250   1.2739001  )
        12           Pt  tau(  12) = (   0.8333333   0.0962250   1.2739001  )
        13           Pt  tau(  13) = (   0.3333333   0.3849002   1.2739001  )
        14           Pt  tau(  14) = (   0.6666667   0.3849002   1.2739001  )
        15           Pt  tau(  15) = (   1.0000000   0.3849002   1.2739001  )
        16           Pt  tau(  16) = (   0.5000000   0.6735753   1.2739001  )
        17           Pt  tau(  17) = (   0.8333333   0.6735753   1.2739001  )
        18           Pt  tau(  18) = (   1.1666667   0.6735753   1.2739001  )
        19           Pt  tau(  19) = (   0.0015259   0.1938461   1.5454801  )
        20           Pt  tau(  20) = (   0.3334222   0.1925084   1.5464090  )
        21           Pt  tau(  21) = (   0.6660795   0.1933380   1.5442191  )
        22           Pt  tau(  22) = (   0.1665087   0.4794994   1.5452376  )
        23           Pt  tau(  23) = (   0.5007629   0.4777723   1.5473804  )
        24           Pt  tau(  24) = (   0.8334255   0.4812133   1.5415540  )
        25           Pt  tau(  25) = (   0.3341346   0.7695964   1.5395292  )
        26           Pt  tau(  26) = (   0.6699981   0.7708014   1.5473761  )
        27           Pt  tau(  27) = (   0.9992585   0.7699462   1.5440468  )
        28           Pt  tau(  28) = (  -0.0048163  -0.0018275   1.8166836  )
        29           Pt  tau(  29) = (   0.3321450  -0.0098038   1.8311666  )
        30           Pt  tau(  30) = (   0.6717821  -0.0028211   1.8158224  )
        31           Pt  tau(  31) = (   0.1532023   0.2958226   1.8310038  )
        32           Pt  tau(  32) = (   0.5066107   0.2936560   1.8324010  )
        33           Pt  tau(  33) = (   0.8315113   0.2894011   1.8159051  )
        34           Pt  tau(  34) = (   0.3325907   0.5826090   1.8165898  )
        35           Pt  tau(  35) = (   0.6657944   0.5772233   1.8164475  )
        36           Pt  tau(  36) = (   0.9988114   0.5780246   1.8157864  )
        37           C   tau(  37) = (   0.4345917   0.1289801   2.0175568  )
        38           C   tau(  38) = (   0.3063578   0.2089096   1.9707758  )
        39           H   tau(  39) = (   0.4944973   0.0956129   2.1256695  )

     number of k points=    13  Marzari-Vanderbilt smearing, width (Ry)=  0.0200
                       cart. coord. in units 2pi/alat
        k(    1) = (   0.0000000   0.0000000   0.0000000), wk =   0.0800000
        k(    2) = (   0.0000000   0.2309401   0.0000000), wk =   0.1600000
        k(    3) = (   0.0000000   0.4618802   0.0000000), wk =   0.1600000
        k(    4) = (   0.2000000  -0.1154701   0.0000000), wk =   0.1600000
        k(    5) = (   0.2000000   0.1154701   0.0000000), wk =   0.1600000
        k(    6) = (   0.2000000   0.3464102   0.0000000), wk =   0.1600000
        k(    7) = (   0.2000000  -0.5773503   0.0000000), wk =   0.1600000
        k(    8) = (   0.2000000  -0.3464102   0.0000000), wk =   0.1600000
        k(    9) = (   0.4000000  -0.2309401   0.0000000), wk =   0.1600000
        k(   10) = (   0.4000000  -0.0000000   0.0000000), wk =   0.1600000
        k(   11) = (   0.4000000   0.2309401   0.0000000), wk =   0.1600000
        k(   12) = (   0.4000000  -0.6928203   0.0000000), wk =   0.1600000
        k(   13) = (   0.4000000  -0.4618802   0.0000000), wk =   0.1600000

     Check: negative core charge=   -0.000001

     Initial potential from superposition of free atoms

     starting charge  368.99380, renormalised to  369.00000

     negative rho (up, down):  1.189E-02 0.000E+00

     %%%%%%%%%%%%%%%%%%%%%%%%%%%%%%%%%%%%%%%%%%%%%%%%%%%%%%%%%%%%%%%%%%%%%%%%
     %                                                                      %
     % You are using vdW-DF, which was implemented by the Thonhauser group. %
     % Please cite the following two papers that made this development      %
     % possible and the two reviews that describe the various versions:     %
     %                                                                      %
     %   T. Thonhauser et al., PRL 115, 136402 (2015).                      %
     %   T. Thonhauser et al., PRB 76, 125112 (2007).                       %
     %   K. Berland et al., Rep. Prog. Phys. 78, 066501 (2015).             %
     %   D.C. Langreth et al., J. Phys.: Condens. Matter 21, 084203 (2009). %
     %                                                                      %
     %                                                                      %
     % If you are calculating the stress with vdW-DF, please also cite:     %
     %                                                                      %
     %   R. Sabatini et al., J. Phys.: Condens. Matter 24, 424209 (2012).   %
     %                                                                      %
     %%%%%%%%%%%%%%%%%%%%%%%%%%%%%%%%%%%%%%%%%%%%%%%%%%%%%%%%%%%%%%%%%%%%%%%%

     Starting wfcs are  333 randomized atomic wfcs
     Checking if some PAW data can be deallocated...

     Self-consistent Calculation

     iteration #  1     ecut=    60.00 Ry     beta= 0.70
     Davidson diagonalization with overlap
     ethr =  1.00E-02,  avg # of iterations =  2.0

     Threshold (ethr) on eigenvalues was too large:
     Diagonalizing with lowered threshold

     Davidson diagonalization with overlap
     ethr =  6.50E-04,  avg # of iterations =  3.5

[...]

     total energy              =  -27792.99649422 Ry
     estimated scf accuracy    <       2.66225673 Ry

[...]

     iteration #  7     ecut=    60.00 Ry     beta= 0.70
     Davidson diagonalization with overlap
     c_bands:  1 eigenvalues not converged
     c_bands:  1 eigenvalues not converged
     c_bands:  1 eigenvalues not converged
     ethr =  2.71E-06,  avg # of iterations = 17.3

[...]

     iteration # 18     ecut=    60.00 Ry     beta= 0.70
     Davidson diagonalization with overlap
     c_bands:  1 eigenvalues not converged
     ethr =  8.59E-10,  avg # of iterations =  3.4

[...]

     total energy              =  -27793.36752627 Ry
     estimated scf accuracy    <       0.00000166 Ry

     iteration # 19     ecut=    60.00 Ry     beta= 0.70
     Davidson diagonalization with overlap
     ethr =  4.50E-10,  avg # of iterations =  1.6

[...]

     End of self-consistent calculation

          k = 0.0000 0.0000 0.0000 ( 87663 PWs)   bands (ev):

   -14.0700  -8.0690  -6.7568  -5.6808  -5.4262  -4.7449  -4.7162  -4.3789
    -4.3592  -4.3403  -4.3396  -4.3082  -4.2527  -4.1872  -3.9245  -3.8001
    -3.7991  -3.7840  -3.7371  -3.6860  -3.6730  -3.4066  -3.3829  -3.3703
    -3.2682  -3.2333  -3.2095  -3.1484  -3.1276  -3.1192  -3.0325  -3.0276
    -3.0189  -2.9968  -2.9691  -2.9370  -2.9304  -2.9290  -2.8706  -2.8548
    -2.8353  -2.8185  -2.7679  -2.7240  -2.5531  -2.3606  -2.3559  -2.2895
    -2.2644  -2.2500  -2.2383  -2.2166  -2.2085  -2.1873  -2.0555  -2.0175
    -2.0112  -1.9460  -1.9058  -1.5971  -1.5747  -1.5318  -1.5186  -1.4714
    -1.4539  -1.4400  -1.3778  -1.3587  -1.3234  -1.2902  -1.2647  -1.2622
    -1.2469  -1.2453  -1.2339  -1.2278  -1.2121  -1.2055  -1.1864  -1.1514
    -1.1404  -1.1062  -1.1032  -1.0736  -1.0486  -1.0396  -1.0192  -1.0016
    -0.8925  -0.8682  -0.8620  -0.8556  -0.8362  -0.8179  -0.8029  -0.7824
    -0.7576  -0.7398  -0.7348  -0.7187  -0.7104  -0.6068  -0.6067  -0.5669
    -0.5645  -0.5278  -0.4768  -0.4455  -0.4287  -0.4217  -0.3913  -0.3352
    -0.2310  -0.0501  -0.0122  -0.0015   0.0015   0.0614   0.0726   0.0795
     0.0860   0.1582   0.2144   0.2294   0.2474   0.2858   0.2916   0.3294
     0.3469   0.3526   0.3598   0.4095   0.4738   0.5574   0.5793   0.5826
     0.5876   0.7331   0.7671   0.7783   0.7895   0.7993   0.8104   0.8709
     0.8728   0.8939   0.9625   1.0376   1.0411   1.0556   1.0634   1.0767
     1.1545   1.1710   1.1909   1.2302   1.2460   1.2648   1.2673   1.2739
     1.2817   1.3020   1.3060   1.3101   1.3241   1.3290   1.3763   1.3810
     1.3956   1.4224   1.4396   1.4915   1.4994   1.5084   1.5434   1.5489
     1.5809   1.5927   1.6307   1.6332   1.6456   1.6592   1.6605   1.6861
     1.7056   1.7117   1.7423   1.7606   1.7851   1.7860   1.8545   1.9207
     2.0075   2.0194   2.0435   2.0723   2.0751   2.1035   2.1272   2.1886
     2.5303   2.8585   2.9375   2.9529   2.9659   3.3784   3.3847   4.7489
     5.2084   5.2498   5.2764   5.3680   5.5520   5.7059   6.0217   6.3452
     6.7246   6.8233   6.8765   6.8810   6.8917   6.9783

[...]

          k = 0.4000-0.4619 0.0000 ( 87504 PWs)   bands (ev):

   -14.0686  -8.0610  -5.8759  -5.7750  -5.5100  -5.1896  -4.7670  -4.5480
    -4.5238  -4.2399  -3.9779  -3.9269  -3.8859  -3.8492  -3.7280  -3.7060
    -3.6376  -3.6165  -3.5822  -3.5064  -3.4993  -3.4747  -3.4632  -3.4426
    -3.4152  -3.3364  -3.3054  -3.2975  -3.2568  -3.2331  -3.1700  -3.1060
    -3.0621  -3.0277  -2.9469  -2.8988  -2.8751  -2.8512  -2.8338  -2.7256
    -2.6801  -2.6087  -2.5713  -2.5291  -2.4893  -2.4600  -2.4389  -2.3689
    -2.3039  -2.2587  -2.2168  -2.1554  -2.1369  -2.1095  -2.0972  -2.0080
    -1.9849  -1.9713  -1.9612  -1.9216  -1.8749  -1.8697  -1.8471  -1.8177
    -1.7913  -1.7571  -1.7357  -1.7121  -1.6510  -1.6250  -1.5928  -1.5539
    -1.4541  -1.4418  -1.3955  -1.3906  -1.3617  -1.3496  -1.3301  -1.2928
    -1.2542  -1.2104  -1.1884  -1.1694  -1.1477  -1.0902  -1.0363  -1.0220
    -1.0028  -0.9917  -0.9814  -0.9287  -0.8596  -0.8412  -0.8160  -0.7784
    -0.7544  -0.7455  -0.7090  -0.6867  -0.6819  -0.6696  -0.6512  -0.6351
    -0.5998  -0.5872  -0.5585  -0.5273  -0.5227  -0.5143  -0.4935  -0.4880
    -0.4704  -0.3774  -0.2892  -0.2374  -0.2137  -0.1336  -0.0909  -0.0640
    -0.0352  -0.0133   0.0122   0.0256   0.0477   0.0727   0.1369   0.1483
     0.1613   0.1765   0.2258   0.3018   0.3349   0.3524   0.3821   0.4216
     0.4644   0.5474   0.5846   0.5996   0.6592   0.6770   0.6961   0.7028
     0.7509   0.7827   0.7914   0.8059   0.8461   0.8956   0.9506   0.9524
     0.9759   0.9977   1.0421   1.0648   1.1214   1.1474   1.2416   1.2797
     1.3328   1.4040   1.4351   1.4724   1.5094   1.5521   1.5903   1.6535
     1.6742   1.7216   1.7399   1.7682   1.7930   1.8178   1.8242   1.8535
     1.9049   1.9267   1.9445   1.9691   1.9835   1.9988   2.0188   2.0861
     2.1205   2.1309   2.2085   2.2296   2.2527   2.2605   2.2833   2.3079
     2.4211   2.4996   2.6696   3.0868   3.3685   3.4105   3.5400   3.6230
     3.6461   3.7350   3.7993   4.1536   4.3031   4.3614   4.4612   4.6508
     4.7472   4.8925   4.9727   5.0604   5.2412   5.3006   5.4186   5.5563
     5.5968   5.8451   6.1178   6.3639   6.4194   6.4731

     the Fermi energy is     2.0299 ev

!    total energy              =  -27793.36752641 Ry

     total all-electron energy =  -1326795.661137 Ry
     estimated scf accuracy    <       0.00000027 Ry
     smearing contrib. (-TS)   =       0.00204234 Ry
     internal energy E=F+TS    =  -27793.36956875 Ry

     The total energy is F=E-TS. E is the sum of the following terms:
     one-electron contribution =  -26163.06864117 Ry
     hartree contribution      =   13384.51551645 Ry
     xc contribution           =    -900.33794262 Ry
     ewald contribution        =   11372.64789102 Ry
     one-center paw contrib.   =  -25487.12639243 Ry

     convergence has been achieved in  19 iterations

[...]

     Forces acting on atoms (cartesian axes, Ry/au):

     atom    1 type  1   force =     0.00059692    0.00216452   -0.00535972
     atom    2 type  1   force =    -0.00029628    0.00002047   -0.00409570
     atom    3 type  1   force =    -0.00106778    0.00050174   -0.00589557
     atom    4 type  1   force =    -0.00019569    0.00015309   -0.00494154
     atom    5 type  1   force =    -0.00016579    0.00026295   -0.00403650
     atom    6 type  1   force =     0.00023828   -0.00058949   -0.00381748
     atom    7 type  1   force =    -0.00174605   -0.00160019   -0.00547187
     atom    8 type  1   force =     0.00006940   -0.00003549   -0.00249988
     atom    9 type  1   force =     0.00058363    0.00004841   -0.00392673
     atom   10 type  1   force =    -0.00092347   -0.00211623    0.00790476
     atom   11 type  1   force =     0.00111050   -0.00041275    0.00617490
     atom   12 type  1   force =     0.00044237   -0.00052240   -0.00070147
     atom   13 type  1   force =     0.00151480    0.00187542    0.00772479
     atom   14 type  1   force =    -0.00256527    0.00019905    0.00544179
     atom   15 type  1   force =     0.00214718   -0.00118850    0.00575410
     atom   16 type  1   force =     0.00149672   -0.00094013    0.00452130
     atom   17 type  1   force =    -0.00147507    0.00231677    0.00534168
     atom   18 type  1   force =     0.00097543    0.00019934   -0.00106568
     atom   19 type  1   force =    -0.00025992    0.00021407   -0.00035104
     atom   20 type  1   force =    -0.00007824   -0.00009781    0.00023994
     atom   21 type  1   force =    -0.00008050   -0.00015987   -0.00051445
     atom   22 type  1   force =    -0.00041423   -0.00014752   -0.00028125
     atom   23 type  1   force =    -0.00008582   -0.00002449   -0.00024468
     atom   24 type  1   force =    -0.00005999   -0.00009123   -0.00043993
     atom   25 type  1   force =    -0.00017004   -0.00003505    0.00011200
     atom   26 type  1   force =    -0.00017207   -0.00011585   -0.00033663
     atom   27 type  1   force =    -0.00002957   -0.00005548   -0.00050032
     atom   28 type  1   force =    -0.00000714   -0.00012801    0.00014734
     atom   29 type  1   force =    -0.00011520    0.00037199    0.00041729
     atom   30 type  1   force =     0.00019906   -0.00033616    0.00018134
     atom   31 type  1   force =    -0.00012247   -0.00003277   -0.00017435
     atom   32 type  1   force =    -0.00014136   -0.00009564    0.00033749
     atom   33 type  1   force =     0.00036839    0.00002599    0.00031951
     atom   34 type  1   force =    -0.00012208   -0.00026465    0.00009138
     atom   35 type  1   force =     0.00001762   -0.00004145    0.00049754
     atom   36 type  1   force =    -0.00003103   -0.00052147    0.00028520
     atom   37 type  2   force =     0.00670394   -0.00180350    0.00899424
     atom   38 type  2   force =    -0.00057970    0.00047050    0.00022607
     atom   39 type  3   force =    -0.00555951    0.00253182   -0.01005786

     Total force =     0.016476     Total SCF correction =     0.000700

[...]

     negative rho (up, down):  1.292E-02 0.000E+00

     negative rho (up, down):  1.292E-02 0.000E+00
 BEEFens 2000 ensemble energies
             -0.601963528008851E+02
             -0.359612282846422E+01
             -0.157468137018746E+02
              0.426127979774402E+02
             -0.219587380995857E+02
             -0.204277120699323E+02
             -0.348597558633660E+02
             -0.857796552629323E+02
             -0.462929664320106E+02
             -0.470350948752269E+02
             -0.366624133025351E+02
              0.220854670765307E+01
              0.404379879622539E+01
              0.768278909617865E+01
              0.262470436931329E+01
              0.471490121611446E+02
             -0.207549688368214E+02
             -0.229968792470101E+02
              0.191230655966530E+02
             -0.111582329404813E+03
              0.532218146718212E+02
             -0.288550761932851E+02
             -0.329396558458524E+01
             -0.113453415817403E+02
             -0.889119955089689E+01
             -0.463042165612765E+01
              0.876464390366485E+02
             -0.184852511442423E+02
             -0.895932582485671E+01
             -0.514315930650646E+02
              0.811120410188516E+02
             -0.187415393884926E+02
             -0.372031933947319E+02
              0.248208218828721E+02
             -0.281604167197457E+01
              0.161716806167282E+02
             -0.488319748874636E+01
              0.108299727782357E+02
              0.285192585832462E+02
             -0.102580936410819E+03
              0.554271719844452E+02
              0.141418914246214E+02
             -0.158822223288064E+01
             -0.359536231351118E+02
              0.122261913489393E+02
             -0.145055100095035E+02
              0.394647226166642E+02
              0.362410705870496E+02
             -0.307010690258684E+02
             -0.272834288585793E+02
             -0.326125710586821E+02
             -0.349270408508633E+02
              0.134307100102509E+02
             -0.487178238352332E+02
              0.114212780019039E+02
              0.618615454131829E+02
              0.629563574135282E+02
              0.353513941347383E+02
              0.153039469468468E+02
              0.267862099307650E+02
[...]
             -0.700489580366135E+02
             -0.968211919555756E+00
             -0.247373446371470E+01
             -0.874343157442104E+01
             -0.180844333872648E+01
             -0.648143156182938E+02
             -0.210409525724802E+02
              0.527944171999767E+01
              0.885737043355417E+01
              0.465009407361571E+02
             -0.394449944796993E+02
              0.653851362859117E+02
             -0.422387474831044E+02
              0.208097018238375E+02
              0.346994515429398E+02

 BEEF-vdW xc energy contributions
           1 :   -777.684807953319
           2 :    715.053769435558
           3 :   -606.313416918614
           4 :    477.863356532137
           5 :   -356.849473776546
           6 :    263.055449661685
           7 :   -204.280381540078
           8 :    176.202284682120
           9 :   -166.316629460851
          10 :    160.051053983255
          11 :   -146.546510577449
          12 :    121.923348546376
          13 :   -89.1838172612668
          14 :    55.3437574428963
          15 :   -27.4478129601283
          16 :    9.28575294858354
          17 :  -9.370851917333312E-002
          18 :   -4.50382012719558
          19 :    10.0151891015779
          20 :   -20.3707645906235
          21 :    36.2247648244459
          22 :   -54.9416565353221
          23 :    72.1056832134302
          24 :   -83.7280179540759
          25 :    88.0648635488778
          26 :   -86.2472281642158
          27 :    81.5309541420959
          28 :   -77.6225060182281
          29 :    76.9160265195870
          30 :   -79.4789598239112
          31 :   -85.1673541513070
          32 :   -65.4092347904340

     Writing output data file ./pwscf.save/

     General routines

     Parallel routines

   This run was terminated on:  19:17:24  20Dec2022

   JOB DONE.