     Program PWSCF v.6.7MaX starts on  4Jan2023 at 10:17: 4

     Reading input from chcc-tri-ensemble.in
Warning: card &CELL ignored
Warning: card / ignored

     Current dimensions of program PWSCF are:
     Max number of different atomic species (ntypx) = 10
     Max number of k-points (npk) =  40000
     Max angular momentum in pseudopotentials (lmaxx) =  3
     file Pt.pbe-n-kjpaw_psl.1.0.0.UPF: wavefunction(s)  6S 5D renormalized
     file C.pbe-n-kjpaw_psl.1.0.0.UPF: wavefunction(s)  2S 2P renormalized
     file H.pbe-kjpaw_psl.1.0.0.UPF: wavefunction(s)  1S renormalized

     IMPORTANT: XC functional enforced from input :
     Exchange-correlation= BEEF-VDW
                           (   1   4  43  14   2   0   0)
     Any further DFT definition will be discarded
     Please, verify this is what you really want

     Subspace diagonalization in iterative solution of the eigenvalue problem:
     a serial algorithm will be used

     bravais-lattice index     =            0
     lattice parameter (alat)  =      16.0349  a.u.
     unit-cell volume          =   11126.1876 (a.u.)^3
     number of atoms/cell      =           40
     number of atomic types    =            3
     number of electrons       =       373.00
     number of Kohn-Sham states=          224
     kinetic-energy cutoff     =      60.0000  Ry
     charge density cutoff     =     240.0000  Ry
     scf convergence threshold =      1.0E-06
     mixing beta               =       0.7000
     number of iterations used =            8  local-TF  mixing
     Exchange-correlation= BEEF-VDW
                           (   1   4  43  14   2   0   0)

     celldm(1)=  16.034858  celldm(2)=   0.000000  celldm(3)=   0.000000
     celldm(4)=   0.000000  celldm(5)=   0.000000  celldm(6)=   0.000000

     crystal axes: (cart. coord. in units of alat)
               a(1) = (   1.000000   0.000000   0.000000 )
               a(2) = (   0.500000   0.866025   0.000000 )
               a(3) = (   0.000000   0.000000   3.116165 )

     reciprocal axes: (cart. coord. in units 2 pi/alat)
               b(1) = (  1.000000 -0.577350  0.000000 )
               b(2) = (  0.000000  1.154701  0.000000 )
               b(3) = (  0.000000  0.000000  0.320907 )

     PseudoPot. # 1 for Pt read from file:
     /users/bkreitz1/quantum-espresso/potentials/Pt.pbe-n-kjpaw_psl.1.0.0.UPF
     MD5 check sum: 04dc8a03c51ece93fc7b5889c2958091
     Pseudo is Projector augmented-wave + core cor, Zval = 10.0
     Generated using 'atomic' code by A. Dal Corso  v.6.7MaX
     Shape of augmentation charge: PSQ
     Using radial grid of 1277 points,  6 beta functions with:
                l(1) =   0
                l(2) =   0
                l(3) =   1
                l(4) =   1
                l(5) =   2
                l(6) =   2
     Q(r) pseudized with 0 coefficients

     PseudoPot. # 2 for C  read from file:
     /users/bkreitz1/quantum-espresso/potentials/C.pbe-n-kjpaw_psl.1.0.0.UPF
     MD5 check sum: a169b0ebad56f5ec0d79c4633f80bf22
     Pseudo is Projector augmented-wave + core cor, Zval =  4.0
     Generated using 'atomic' code by A. Dal Corso  v.6.7MaX
     Shape of augmentation charge: PSQ
     Using radial grid of 1073 points,  4 beta functions with:
                l(1) =   0
                l(2) =   0
                l(3) =   1
                l(4) =   1
     Q(r) pseudized with 0 coefficients

     PseudoPot. # 3 for H  read from file:
     /users/bkreitz1/quantum-espresso/potentials/H.pbe-kjpaw_psl.1.0.0.UPF
     MD5 check sum: ae98473e6dc62675f0d0baffdab24f65
     Pseudo is Projector augmented-wave, Zval =  1.0
     Generated using 'atomic' code by A. Dal Corso  v.6.7MaX
     Shape of augmentation charge: PSQ
     Using radial grid of  929 points,  2 beta functions with:
                l(1) =   0
                l(2) =   0
     Q(r) pseudized with 0 coefficients

     atomic species   valence    mass     pseudopotential
        Pt            10.00   195.08400     Pt( 1.00)
        C              4.00    12.01100     C ( 1.00)
        H              1.00     1.00800     H ( 1.00)

     No symmetry found

   Cartesian axes

     site n.     atom                  positions (alat units)
         1           Pt  tau(   1) = (   0.0000000   0.0000000   1.0017346  )
         2           Pt  tau(   2) = (   0.3333333   0.0000000   1.0017346  )
         3           Pt  tau(   3) = (   0.6666667   0.0000000   1.0017346  )
         4           Pt  tau(   4) = (   0.1666667   0.2886751   1.0017346  )
         5           Pt  tau(   5) = (   0.5000000   0.2886751   1.0017346  )
         6           Pt  tau(   6) = (   0.8333333   0.2886751   1.0017346  )
         7           Pt  tau(   7) = (   0.3333333   0.5773503   1.0017346  )
         8           Pt  tau(   8) = (   0.6666667   0.5773503   1.0017346  )
         9           Pt  tau(   9) = (   1.0000000   0.5773503   1.0017346  )
        10           Pt  tau(  10) = (   0.1666667   0.0962250   1.2739001  )
        11           Pt  tau(  11) = (   0.5000000   0.0962250   1.2739001  )
        12           Pt  tau(  12) = (   0.8333333   0.0962250   1.2739001  )
        13           Pt  tau(  13) = (   0.3333333   0.3849002   1.2739001  )
        14           Pt  tau(  14) = (   0.6666667   0.3849002   1.2739001  )
        15           Pt  tau(  15) = (   1.0000000   0.3849002   1.2739001  )
        16           Pt  tau(  16) = (   0.5000000   0.6735753   1.2739001  )
        17           Pt  tau(  17) = (   0.8333333   0.6735753   1.2739001  )
        18           Pt  tau(  18) = (   1.1666667   0.6735753   1.2739001  )
        19           Pt  tau(  19) = (  -0.0048907   0.1937126   1.5468780  )
        20           Pt  tau(  20) = (   0.3302147   0.1868168   1.5448523  )
        21           Pt  tau(  21) = (   0.6661750   0.1931768   1.5434812  )
        22           Pt  tau(  22) = (   0.1629858   0.4818636   1.5448176  )
        23           Pt  tau(  23) = (   0.4997711   0.4827382   1.5441050  )
        24           Pt  tau(  24) = (   0.8307528   0.4811113   1.5464408  )
        25           Pt  tau(  25) = (   0.3315833   0.7703764   1.5405070  )
        26           Pt  tau(  26) = (   0.6651414   0.7670162   1.5480099  )
        27           Pt  tau(  27) = (   0.9974939   0.7688778   1.5448034  )
        28           Pt  tau(  28) = (  -0.0037615  -0.0012938   1.8152493  )
        29           Pt  tau(  29) = (   0.3328947   0.0189082   1.8325338  )
        30           Pt  tau(  30) = (   0.6666481   0.0000141   1.8145467  )
        31           Pt  tau(  31) = (   0.1668606   0.2882100   1.8166368  )
        32           Pt  tau(  32) = (   0.4937411   0.2884854   1.8117015  )
        33           Pt  tau(  33) = (   0.8358659   0.2788291   1.8336448  )
        34           Pt  tau(  34) = (   0.3298867   0.5778637   1.8146661  )
        35           Pt  tau(  35) = (   0.6471606   0.5714545   1.8368231  )
        36           Pt  tau(  36) = (   1.0106503   0.5694984   1.8225168  )
        37           C   tau(  37) = (   0.7662675   0.4075953   2.0186004  )
        38           C   tau(  38) = (   0.8462767   0.5516379   2.0143003  )
        39           C   tau(  39) = (   0.8360743   0.7006538   1.9624895  )
        40           H   tau(  40) = (   0.6999093   0.3646360   2.1203402  )

     number of k points=    13  Marzari-Vanderbilt smearing, width (Ry)=  0.0200
                       cart. coord. in units 2pi/alat
        k(    1) = (   0.0000000   0.0000000   0.0000000), wk =   0.0800000
        k(    2) = (   0.0000000   0.2309401   0.0000000), wk =   0.1600000
        k(    3) = (   0.0000000   0.4618802   0.0000000), wk =   0.1600000
        k(    4) = (   0.2000000  -0.1154701   0.0000000), wk =   0.1600000
        k(    5) = (   0.2000000   0.1154701   0.0000000), wk =   0.1600000
        k(    6) = (   0.2000000   0.3464102   0.0000000), wk =   0.1600000
        k(    7) = (   0.2000000  -0.5773503   0.0000000), wk =   0.1600000
        k(    8) = (   0.2000000  -0.3464102   0.0000000), wk =   0.1600000
        k(    9) = (   0.4000000  -0.2309401   0.0000000), wk =   0.1600000
        k(   10) = (   0.4000000  -0.0000000   0.0000000), wk =   0.1600000
        k(   11) = (   0.4000000   0.2309401   0.0000000), wk =   0.1600000
        k(   12) = (   0.4000000  -0.6928203   0.0000000), wk =   0.1600000
        k(   13) = (   0.4000000  -0.4618802   0.0000000), wk =   0.1600000

     Check: negative core charge=   -0.000002

     Initial potential from superposition of free atoms

     starting charge  372.99376, renormalised to  373.00000

     negative rho (up, down):  1.196E-02 0.000E+00

     %%%%%%%%%%%%%%%%%%%%%%%%%%%%%%%%%%%%%%%%%%%%%%%%%%%%%%%%%%%%%%%%%%%%%%%%
     %                                                                      %
     % You are using vdW-DF, which was implemented by the Thonhauser group. %
     % Please cite the following two papers that made this development      %
     % possible and the two reviews that describe the various versions:     %
     %                                                                      %
     %   T. Thonhauser et al., PRL 115, 136402 (2015).                      %
     %   T. Thonhauser et al., PRB 76, 125112 (2007).                       %
     %   K. Berland et al., Rep. Prog. Phys. 78, 066501 (2015).             %
     %   D.C. Langreth et al., J. Phys.: Condens. Matter 21, 084203 (2009). %
     %                                                                      %
     %                                                                      %
     % If you are calculating the stress with vdW-DF, please also cite:     %
     %                                                                      %
     %   R. Sabatini et al., J. Phys.: Condens. Matter 24, 424209 (2012).   %
     %                                                                      %
     %%%%%%%%%%%%%%%%%%%%%%%%%%%%%%%%%%%%%%%%%%%%%%%%%%%%%%%%%%%%%%%%%%%%%%%%

     Starting wfcs are  337 randomized atomic wfcs
     Checking if some PAW data can be deallocated...

     Self-consistent Calculation

     iteration #  1     ecut=    60.00 Ry     beta= 0.70
     Davidson diagonalization with overlap
     ethr =  1.00E-02,  avg # of iterations =  2.0

     Threshold (ethr) on eigenvalues was too large:
     Diagonalizing with lowered threshold

     Davidson diagonalization with overlap
     ethr =  7.77E-04,  avg # of iterations =  2.6

[...]

     total energy              =  -27811.87413350 Ry
     estimated scf accuracy    <       3.18856637 Ry

[...]

     iteration #  5     ecut=    60.00 Ry     beta= 0.70
     Davidson diagonalization with overlap
     c_bands:  1 eigenvalues not converged
     c_bands:  1 eigenvalues not converged
     c_bands:  1 eigenvalues not converged
     c_bands:  1 eigenvalues not converged
     c_bands:  1 eigenvalues not converged
     c_bands:  1 eigenvalues not converged
     c_bands:  1 eigenvalues not converged
     ethr =  2.25E-05,  avg # of iterations = 19.3

[...]

     iteration # 10     ecut=    60.00 Ry     beta= 0.70
     Davidson diagonalization with overlap
     c_bands:  1 eigenvalues not converged
     ethr =  3.80E-07,  avg # of iterations =  5.0

[...]

     total energy              =  -27812.30395951 Ry
     estimated scf accuracy    <       0.00000148 Ry

     iteration # 19     ecut=    60.00 Ry     beta= 0.70
     Davidson diagonalization with overlap
     ethr =  3.97E-10,  avg # of iterations =  2.3

[...]

     End of self-consistent calculation

          k = 0.0000 0.0000 0.0000 ( 87435 PWs)   bands (ev):

   -14.9822 -11.5705  -7.0328  -6.6143  -5.9015  -5.2587  -5.0191  -4.7715
    -4.3124  -4.2451  -4.2342  -4.2278  -4.2018  -4.1619  -4.1289  -3.9979
    -3.8603  -3.7759  -3.7006  -3.6441  -3.6237  -3.5987  -3.5245  -3.3807
    -3.2888  -3.2114  -3.1354  -3.1021  -3.0537  -3.0424  -3.0363  -3.0059
    -2.9779  -2.9466  -2.8960  -2.8913  -2.8467  -2.8104  -2.8085  -2.7700
    -2.7564  -2.7288  -2.7095  -2.6589  -2.6492  -2.5889  -2.4222  -2.2663
    -2.2294  -2.1937  -2.1612  -2.1429  -2.1290  -2.1126  -2.0918  -2.0634
    -2.0547  -1.9642  -1.8980  -1.8847  -1.8189  -1.7223  -1.5504  -1.4627
    -1.4233  -1.4091  -1.3804  -1.3562  -1.2930  -1.2779  -1.2581  -1.1916
    -1.1720  -1.1570  -1.1496  -1.1459  -1.1331  -1.1266  -1.1087  -1.0814
    -1.0741  -1.0632  -1.0380  -1.0203  -1.0155  -0.9937  -0.9704  -0.9641
    -0.9409  -0.9345  -0.8468  -0.8186  -0.7643  -0.7550  -0.7293  -0.7193
    -0.6831  -0.6734  -0.6422  -0.6309  -0.6088  -0.5987  -0.5561  -0.5038
    -0.4900  -0.4789  -0.4514  -0.4456  -0.4017  -0.3699  -0.3456  -0.3290
    -0.2838  -0.2513  -0.1813  -0.0817  -0.0160   0.0330   0.0978   0.1481
     0.1701   0.1802   0.2167   0.3010   0.3213   0.3427   0.3608   0.3839
     0.4006   0.4168   0.4197   0.4416   0.4630   0.5071   0.5361   0.6769
     0.6811   0.7020   0.7095   0.7401   0.8281   0.8427   0.8743   0.8951
     0.9125   0.9453   0.9666   0.9952   1.0106   1.0383   1.1449   1.1582
     1.1730   1.1926   1.2297   1.2433   1.2935   1.3135   1.3507   1.3602
     1.3794   1.3861   1.4039   1.4048   1.4133   1.4160   1.4338   1.4408
     1.4657   1.4942   1.5082   1.5375   1.5915   1.6066   1.6133   1.6203
     1.6437   1.6645   1.6953   1.7265   1.7304   1.7426   1.7523   1.7613
     1.7921   1.7941   1.8122   1.8351   1.8436   1.8809   1.9076   1.9152
     1.9978   2.0663   2.1030   2.1301   2.1744   2.1883   2.1993   2.2168
     2.3379   2.5538   2.6192   2.9580   3.0189   3.0628   3.2708   3.4396
     3.8950   4.5900   4.7284   5.2431   5.3524   5.3748   5.5992   5.7310
     6.1033   6.2410   6.5842   6.9111   6.9324   6.9892   7.0207   7.0909

[...]

          k = 0.4000-0.4619 0.0000 ( 87340 PWs)   bands (ev):

   -14.9807 -11.5713  -6.9552  -5.9002  -5.7806  -5.5106  -5.1539  -5.0390
    -4.6596  -4.3487  -4.2615  -3.9267  -3.8893  -3.8050  -3.7510  -3.6808
    -3.6197  -3.5641  -3.5372  -3.5132  -3.4391  -3.4035  -3.3765  -3.3657
    -3.3338  -3.3103  -3.2641  -3.2399  -3.1985  -3.1731  -3.1500  -3.1430
    -3.0605  -3.0149  -2.9269  -2.9072  -2.8866  -2.8322  -2.7803  -2.7498
    -2.7083  -2.6895  -2.6647  -2.5623  -2.5116  -2.4272  -2.3796  -2.3463
    -2.3097  -2.2886  -2.2303  -2.1938  -2.1060  -2.0758  -2.0604  -2.0301
    -1.9878  -1.9747  -1.8975  -1.8800  -1.8536  -1.8321  -1.8210  -1.7628
    -1.7323  -1.7129  -1.6816  -1.6575  -1.6241  -1.6027  -1.5590  -1.5148
    -1.4883  -1.4650  -1.4244  -1.3813  -1.3146  -1.3117  -1.2851  -1.2542
    -1.2339  -1.2011  -1.1472  -1.1141  -1.0892  -1.0459  -1.0299  -1.0000
    -0.9790  -0.9230  -0.9101  -0.8929  -0.8762  -0.8319  -0.8013  -0.7600
    -0.6980  -0.6859  -0.6817  -0.6305  -0.6038  -0.5843  -0.5712  -0.5643
    -0.5412  -0.5079  -0.4884  -0.4594  -0.4453  -0.4196  -0.4141  -0.4061
    -0.3793  -0.3645  -0.3045  -0.2564  -0.1960  -0.1556  -0.1034  -0.0890
    -0.0186   0.0300   0.0442   0.0666   0.1064   0.1270   0.1453   0.1678
     0.2240   0.2545   0.2581   0.2746   0.3275   0.3950   0.4205   0.4404
     0.4637   0.4968   0.5549   0.6014   0.6340   0.7244   0.7434   0.7613
     0.7835   0.8091   0.8401   0.8792   0.9157   0.9403   0.9787   0.9928
     1.0075   1.0241   1.0829   1.1084   1.1330   1.1704   1.2484   1.2728
     1.3320   1.4073   1.4402   1.5053   1.5293   1.5707   1.5872   1.6273
     1.6874   1.7354   1.7599   1.8161   1.8247   1.8704   1.8887   1.9248
     1.9514   2.0003   2.0242   2.0261   2.0510   2.0718   2.0815   2.1209
     2.1373   2.2034   2.2349   2.2746   2.3319   2.3400   2.3748   2.3936
     2.4166   2.4501   2.5546   2.6392   2.9570   3.0374   3.3397   3.5020
     3.5682   3.7146   3.8179   3.9007   3.9551   4.1079   4.2533   4.4889
     4.5447   4.6627   4.9335   5.0117   5.1574   5.1944   5.3469   5.4118
     5.4658   5.6240   5.7451   5.8676   6.0514   6.2098   6.4765   6.5528

     the Fermi energy is     2.1463 ev

!    total energy              =  -27812.30395968 Ry

     total all-electron energy =  -1326872.361668 Ry
     estimated scf accuracy    <       0.00000037 Ry
     smearing contrib. (-TS)   =       0.00260509 Ry
     internal energy E=F+TS    =  -27812.30656477 Ry

     The total energy is F=E-TS. E is the sum of the following terms:
     one-electron contribution =  -26255.95055897 Ry
     hartree contribution      =   13433.64057857 Ry
     xc contribution           =    -905.24333338 Ry
     ewald contribution        =   11408.96137496 Ry
     one-center paw contrib.   =  -25493.71462595 Ry

     convergence has been achieved in  19 iterations

[...]

     Forces acting on atoms (cartesian axes, Ry/au):

     atom    1 type  1   force =     0.00069520   -0.00035665   -0.00362741
     atom    2 type  1   force =     0.00223453   -0.00089367   -0.00590848
     atom    3 type  1   force =    -0.00037156   -0.00000502   -0.00513849
     atom    4 type  1   force =     0.00027448    0.00107264   -0.00406940
     atom    5 type  1   force =     0.00150735   -0.00042266   -0.00516026
     atom    6 type  1   force =     0.00029225   -0.00028243   -0.00453131
     atom    7 type  1   force =    -0.00015059    0.00195975   -0.00581564
     atom    8 type  1   force =    -0.00005188   -0.00009430   -0.00321540
     atom    9 type  1   force =     0.00119640   -0.00014901   -0.00446974
     atom   10 type  1   force =     0.00099689   -0.00098151    0.00448778
     atom   11 type  1   force =    -0.00443762    0.00110575    0.00053901
     atom   12 type  1   force =     0.00105819    0.00236798    0.00485967
     atom   13 type  1   force =     0.00026298   -0.00110601    0.00704781
     atom   14 type  1   force =    -0.00160630    0.00033901    0.00510675
     atom   15 type  1   force =     0.00122391   -0.00197611    0.00668022
     atom   16 type  1   force =     0.00060322   -0.00132308    0.00184095
     atom   17 type  1   force =    -0.00264102    0.00225560    0.00707450
     atom   18 type  1   force =    -0.00114204   -0.00327683    0.00112348
     atom   19 type  1   force =    -0.00004028   -0.00087317    0.00009147
     atom   20 type  1   force =    -0.00012202    0.00018574    0.00008516
     atom   21 type  1   force =     0.00001203   -0.00023918    0.00016277
     atom   22 type  1   force =    -0.00001475   -0.00017032    0.00015930
     atom   23 type  1   force =    -0.00000532   -0.00048718   -0.00023621
     atom   24 type  1   force =    -0.00038197    0.00006625    0.00052043
     atom   25 type  1   force =    -0.00039223   -0.00009617    0.00031286
     atom   26 type  1   force =     0.00029081   -0.00004864    0.00018757
     atom   27 type  1   force =    -0.00010442    0.00003275   -0.00022052
     atom   28 type  1   force =     0.00005977   -0.00013376   -0.00003024
     atom   29 type  1   force =    -0.00026867    0.00015515   -0.00041957
     atom   30 type  1   force =     0.00038471   -0.00033842   -0.00004540
     atom   31 type  1   force =     0.00001570   -0.00013003    0.00031645
     atom   32 type  1   force =     0.00045204    0.00030262   -0.00000588
     atom   33 type  1   force =     0.00011407    0.00031625   -0.00006462
     atom   34 type  1   force =    -0.00004542    0.00010638   -0.00008448
     atom   35 type  1   force =     0.00047806   -0.00031888    0.00069436
     atom   36 type  1   force =    -0.00007923   -0.00023477   -0.00039631
     atom   37 type  2   force =    -0.00603381   -0.00025846    0.00925172
     atom   38 type  2   force =    -0.00112049    0.00075501   -0.00095923
     atom   39 type  2   force =     0.00145340    0.00014171    0.00266050
     atom   40 type  3   force =     0.00540364    0.00303367   -0.00880417

     Total force =     0.015944     Total SCF correction =     0.000622

[...]

     negative rho (up, down):  1.313E-02 0.000E+00

     negative rho (up, down):  1.313E-02 0.000E+00
 BEEFens 2000 ensemble energies
             -0.605581759444618E+02
             -0.361341987603052E+01
             -0.158305439861393E+02
              0.428388252125488E+02
             -0.220587568631648E+02
             -0.205203809230738E+02
             -0.351200642100855E+02
             -0.863201932048050E+02
             -0.465086716405800E+02
             -0.472411269538406E+02
             -0.368565100710690E+02
              0.223114699124694E+01
              0.408089747034859E+01
              0.764667341200149E+01
              0.265197902658400E+01
              0.474096197981447E+02
             -0.208711783371881E+02
             -0.230821625325247E+02
              0.192565388222084E+02
             -0.112195036083352E+03
              0.535336435066986E+02
             -0.289495013623640E+02
             -0.332256828015600E+01
             -0.113842438226105E+02
             -0.889396610697668E+01
             -0.469641352536362E+01
              0.881373168088509E+02
             -0.185821103569493E+02
             -0.903055031522126E+01
             -0.517606125068835E+02
              0.815171819952934E+02
             -0.187874345719998E+02
             -0.374428571385030E+02
              0.249421294662696E+02
             -0.281975844755249E+01
              0.163201284382794E+02
             -0.487269998135309E+01
              0.108293735117394E+02
              0.287007024658530E+02
             -0.103161118306140E+03
              0.557139222189195E+02
              0.142124873890276E+02
             -0.163739824739861E+01
             -0.361447769070947E+02
              0.122879498567952E+02
             -0.145669554768814E+02
              0.397447470737161E+02
              0.364406025551461E+02
             -0.308097213637174E+02
             -0.274743409579913E+02
             -0.327724571262254E+02
             -0.351259995960413E+02
              0.135251275146732E+02
             -0.490285860345418E+02
              0.115040245711023E+02
              0.622071383913542E+02
              0.633630120187217E+02
              0.355086974286077E+02
              0.154175028290844E+02
              0.269529065199722E+02
[...]
             -0.704596773058743E+02
             -0.979230895522051E+00
             -0.245599701765280E+01
             -0.880865332520477E+01
             -0.176411465526922E+01
             -0.651768240312944E+02
             -0.211121432416676E+02
              0.534594470062694E+01
              0.890986795079397E+01
              0.467706490316729E+02
             -0.396829652881492E+02
              0.656989431217825E+02
             -0.424502459742398E+02
              0.209474511628333E+02
              0.349486218820016E+02

 BEEF-vdW xc energy contributions
           1 :   -781.823106541060
           2 :    718.740476402265
           3 :   -609.216126556553
           4 :    479.823648914230
           5 :   -357.882494307359
           6 :    263.314210823817
           7 :   -204.002756943405
           8 :    175.644594390279
           9 :   -165.694699122588
          10 :    159.505493545651
          11 :   -146.136431821562
          12 :    121.643680395520
          13 :   -88.9931771761295
          14 :    55.1901785079207
          15 :   -27.2880542002940
          16 :    9.09711192532677
          17 :   0.122724076496411
          18 :   -4.72638182003971
          19 :    10.2113078483013
          20 :   -20.5118394558547
          21 :    36.2998077052583
          22 :   -54.9634550095947
          23 :    72.1068283672554
          24 :   -83.7453381861998
          25 :    88.1197624255043
          26 :   -86.3337729344235
          27 :    81.6182530008531
          28 :   -77.6668415475054
          29 :    76.8787214129892
          30 :   -79.3424821050268
          31 :   -85.7053272151037
          32 :   -65.8057988936187

     Writing output data file ./pwscf.save/

     General routines

     Parallel routines

   This run was terminated on:  13:47: 9   4Jan2023

   JOB DONE.