     Program PWSCF v.6.7MaX starts on  4Jan2023 at 10:30:53

     Reading input from chcc-bi-ensemble.in
Warning: card &CELL ignored
Warning: card / ignored

     Current dimensions of program PWSCF are:
     Max number of different atomic species (ntypx) = 10
     Max number of k-points (npk) =  40000
     Max angular momentum in pseudopotentials (lmaxx) =  3
     file Pt.pbe-n-kjpaw_psl.1.0.0.UPF: wavefunction(s)  6S 5D renormalized
     file C.pbe-n-kjpaw_psl.1.0.0.UPF: wavefunction(s)  2S 2P renormalized
     file H.pbe-kjpaw_psl.1.0.0.UPF: wavefunction(s)  1S renormalized

     IMPORTANT: XC functional enforced from input :
     Exchange-correlation= BEEF-VDW
                           (   1   4  43  14   2   0   0)
     Any further DFT definition will be discarded
     Please, verify this is what you really want

     Subspace diagonalization in iterative solution of the eigenvalue problem:
     a serial algorithm will be used

     bravais-lattice index     =            0
     lattice parameter (alat)  =      16.0349  a.u.
     unit-cell volume          =   11278.2199 (a.u.)^3
     number of atoms/cell      =           40
     number of atomic types    =            3
     number of electrons       =       373.00
     number of Kohn-Sham states=          224
     kinetic-energy cutoff     =      60.0000  Ry
     charge density cutoff     =     240.0000  Ry
     scf convergence threshold =      1.0E-06
     mixing beta               =       0.7000
     number of iterations used =            8  local-TF  mixing
     Exchange-correlation= BEEF-VDW
                           (   1   4  43  14   2   0   0)

     celldm(1)=  16.034858  celldm(2)=   0.000000  celldm(3)=   0.000000
     celldm(4)=   0.000000  celldm(5)=   0.000000  celldm(6)=   0.000000

     crystal axes: (cart. coord. in units of alat)
               a(1) = (   1.000000   0.000000   0.000000 )
               a(2) = (   0.500000   0.866025   0.000000 )
               a(3) = (   0.000000   0.000000   3.158745 )

     reciprocal axes: (cart. coord. in units 2 pi/alat)
               b(1) = (  1.000000 -0.577350  0.000000 )
               b(2) = (  0.000000  1.154701  0.000000 )
               b(3) = (  0.000000  0.000000  0.316581 )

     PseudoPot. # 1 for Pt read from file:
     /users/bkreitz1/quantum-espresso/potentials/Pt.pbe-n-kjpaw_psl.1.0.0.UPF
     MD5 check sum: 04dc8a03c51ece93fc7b5889c2958091
     Pseudo is Projector augmented-wave + core cor, Zval = 10.0
     Generated using 'atomic' code by A. Dal Corso  v.6.7MaX
     Shape of augmentation charge: PSQ
     Using radial grid of 1277 points,  6 beta functions with:
                l(1) =   0
                l(2) =   0
                l(3) =   1
                l(4) =   1
                l(5) =   2
                l(6) =   2
     Q(r) pseudized with 0 coefficients

     PseudoPot. # 2 for C  read from file:
     /users/bkreitz1/quantum-espresso/potentials/C.pbe-n-kjpaw_psl.1.0.0.UPF
     MD5 check sum: a169b0ebad56f5ec0d79c4633f80bf22
     Pseudo is Projector augmented-wave + core cor, Zval =  4.0
     Generated using 'atomic' code by A. Dal Corso  v.6.7MaX
     Shape of augmentation charge: PSQ
     Using radial grid of 1073 points,  4 beta functions with:
                l(1) =   0
                l(2) =   0
                l(3) =   1
                l(4) =   1
     Q(r) pseudized with 0 coefficients

     PseudoPot. # 3 for H  read from file:
     /users/bkreitz1/quantum-espresso/potentials/H.pbe-kjpaw_psl.1.0.0.UPF
     MD5 check sum: ae98473e6dc62675f0d0baffdab24f65
     Pseudo is Projector augmented-wave, Zval =  1.0
     Generated using 'atomic' code by A. Dal Corso  v.6.7MaX
     Shape of augmentation charge: PSQ
     Using radial grid of  929 points,  2 beta functions with:
                l(1) =   0
                l(2) =   0
     Q(r) pseudized with 0 coefficients

     atomic species   valence    mass     pseudopotential
        Pt            10.00   195.08400     Pt( 1.00)
        C              4.00    12.01100     C ( 1.00)
        H              1.00     1.00800     H ( 1.00)

     No symmetry found

   Cartesian axes

     site n.     atom                  positions (alat units)
         1           Pt  tau(   1) = (   0.0000000   0.0000000   1.0017346  )
         2           Pt  tau(   2) = (   0.3333333   0.0000000   1.0017346  )
         3           Pt  tau(   3) = (   0.6666667   0.0000000   1.0017346  )
         4           Pt  tau(   4) = (   0.1666667   0.2886751   1.0017346  )
         5           Pt  tau(   5) = (   0.5000000   0.2886751   1.0017346  )
         6           Pt  tau(   6) = (   0.8333333   0.2886751   1.0017346  )
         7           Pt  tau(   7) = (   0.3333333   0.5773503   1.0017346  )
         8           Pt  tau(   8) = (   0.6666667   0.5773503   1.0017346  )
         9           Pt  tau(   9) = (   1.0000000   0.5773503   1.0017346  )
        10           Pt  tau(  10) = (   0.1666667   0.0962250   1.2739001  )
        11           Pt  tau(  11) = (   0.5000000   0.0962250   1.2739001  )
        12           Pt  tau(  12) = (   0.8333333   0.0962250   1.2739001  )
        13           Pt  tau(  13) = (   0.3333333   0.3849002   1.2739001  )
        14           Pt  tau(  14) = (   0.6666667   0.3849002   1.2739001  )
        15           Pt  tau(  15) = (   1.0000000   0.3849002   1.2739001  )
        16           Pt  tau(  16) = (   0.5000000   0.6735753   1.2739001  )
        17           Pt  tau(  17) = (   0.8333333   0.6735753   1.2739001  )
        18           Pt  tau(  18) = (   1.1666667   0.6735753   1.2739001  )
        19           Pt  tau(  19) = (   0.0000161   0.1919730   1.5394707  )
        20           Pt  tau(  20) = (   0.3354244   0.1936048   1.5450443  )
        21           Pt  tau(  21) = (   0.6643283   0.1933832   1.5475582  )
        22           Pt  tau(  22) = (   0.1673207   0.4803172   1.5406166  )
        23           Pt  tau(  23) = (   0.5027409   0.4783944   1.5507155  )
        24           Pt  tau(  24) = (   0.8310003   0.4825989   1.5467521  )
        25           Pt  tau(  25) = (   0.3340206   0.7689944   1.5403143  )
        26           Pt  tau(  26) = (   0.6666680   0.7665541   1.5451292  )
        27           Pt  tau(  27) = (   1.0005661   0.7692970   1.5419757  )
        28           Pt  tau(  28) = (   0.0002342   0.0006206   1.8147662  )
        29           Pt  tau(  29) = (   0.3347609  -0.0012125   1.8141785  )
        30           Pt  tau(  30) = (   0.6713123  -0.0056077   1.8162253  )
        31           Pt  tau(  31) = (   0.1649102   0.2864283   1.8165115  )
        32           Pt  tau(  32) = (   0.4952266   0.2733649   1.8430658  )
        33           Pt  tau(  33) = (   0.8383493   0.2850190   1.8128333  )
        34           Pt  tau(  34) = (   0.3342631   0.5751585   1.8120762  )
        35           Pt  tau(  35) = (   0.6760315   0.5841286   1.8366030  )
        36           Pt  tau(  36) = (   1.0068606   0.5751418   1.8158046  )
        37           C   tau(  37) = (   0.5037328   0.2752567   2.0774097  )
        38           C   tau(  38) = (   0.5818827   0.4080545   2.1062188  )
        39           C   tau(  39) = (   0.6531660   0.5323240   2.0568243  )
        40           H   tau(  40) = (   0.4555182   0.1867052   2.1567282  )

     number of k points=    13  Marzari-Vanderbilt smearing, width (Ry)=  0.0200
                       cart. coord. in units 2pi/alat
        k(    1) = (   0.0000000   0.0000000   0.0000000), wk =   0.0800000
        k(    2) = (   0.0000000   0.2309401   0.0000000), wk =   0.1600000
        k(    3) = (   0.0000000   0.4618802   0.0000000), wk =   0.1600000
        k(    4) = (   0.2000000  -0.1154701   0.0000000), wk =   0.1600000
        k(    5) = (   0.2000000   0.1154701   0.0000000), wk =   0.1600000
        k(    6) = (   0.2000000   0.3464102   0.0000000), wk =   0.1600000
        k(    7) = (   0.2000000  -0.5773503   0.0000000), wk =   0.1600000
        k(    8) = (   0.2000000  -0.3464102   0.0000000), wk =   0.1600000
        k(    9) = (   0.4000000  -0.2309401   0.0000000), wk =   0.1600000
        k(   10) = (   0.4000000  -0.0000000   0.0000000), wk =   0.1600000
        k(   11) = (   0.4000000   0.2309401   0.0000000), wk =   0.1600000
        k(   12) = (   0.4000000  -0.6928203   0.0000000), wk =   0.1600000
        k(   13) = (   0.4000000  -0.4618802   0.0000000), wk =   0.1600000

     Check: negative core charge=   -0.000002

     Initial potential from superposition of free atoms

     starting charge  372.99376, renormalised to  373.00000

     negative rho (up, down):  1.133E-02 0.000E+00

     %%%%%%%%%%%%%%%%%%%%%%%%%%%%%%%%%%%%%%%%%%%%%%%%%%%%%%%%%%%%%%%%%%%%%%%%
     %                                                                      %
     % You are using vdW-DF, which was implemented by the Thonhauser group. %
     % Please cite the following two papers that made this development      %
     % possible and the two reviews that describe the various versions:     %
     %                                                                      %
     %   T. Thonhauser et al., PRL 115, 136402 (2015).                      %
     %   T. Thonhauser et al., PRB 76, 125112 (2007).                       %
     %   K. Berland et al., Rep. Prog. Phys. 78, 066501 (2015).             %
     %   D.C. Langreth et al., J. Phys.: Condens. Matter 21, 084203 (2009). %
     %                                                                      %
     %                                                                      %
     % If you are calculating the stress with vdW-DF, please also cite:     %
     %                                                                      %
     %   R. Sabatini et al., J. Phys.: Condens. Matter 24, 424209 (2012).   %
     %                                                                      %
     %%%%%%%%%%%%%%%%%%%%%%%%%%%%%%%%%%%%%%%%%%%%%%%%%%%%%%%%%%%%%%%%%%%%%%%%

     Starting wfcs are  337 randomized atomic wfcs
     Checking if some PAW data can be deallocated...

     Self-consistent Calculation

     iteration #  1     ecut=    60.00 Ry     beta= 0.70
     Davidson diagonalization with overlap
     ethr =  1.00E-02,  avg # of iterations =  2.0

[...]

     total energy              =  -27811.25774393 Ry
     estimated scf accuracy    <       6.29814625 Ry

[...]

     iteration #  5     ecut=    60.00 Ry     beta= 0.70
     Davidson diagonalization with overlap
     c_bands:  1 eigenvalues not converged
     ethr =  3.70E-05,  avg # of iterations =  8.8

[...]

     iteration # 14     ecut=    60.00 Ry     beta= 0.70
     Davidson diagonalization with overlap
     c_bands:  1 eigenvalues not converged
     ethr =  3.60E-08,  avg # of iterations =  2.5

[...]

     total energy              =  -27812.23321396 Ry
     estimated scf accuracy    <       0.00000584 Ry

     iteration # 19     ecut=    60.00 Ry     beta= 0.70
     Davidson diagonalization with overlap
     ethr =  1.57E-09,  avg # of iterations =  1.9

[...]

     End of self-consistent calculation

          k = 0.0000 0.0000 0.0000 ( 88661 PWs)   bands (ev):

   -13.8649 -10.8489  -6.8548  -6.2501  -5.6198  -4.8674  -4.5335  -4.4864
    -4.4434  -4.4301  -4.4235  -4.4034  -4.3838  -4.3017  -4.0974  -3.8840
    -3.8757  -3.8698  -3.8554  -3.8018  -3.7041  -3.4452  -3.4425  -3.4313
    -3.4089  -3.3835  -3.3585  -3.2588  -3.2002  -3.1895  -3.1828  -3.1137
    -3.1042  -3.0539  -3.0075  -3.0006  -2.9739  -2.9669  -2.9565  -2.9471
    -2.9380  -2.9268  -2.8755  -2.8493  -2.8267  -2.7810  -2.4385  -2.3963
    -2.3372  -2.3262  -2.3121  -2.3007  -2.2732  -2.2662  -2.2280  -2.1556
    -2.0958  -2.0754  -2.0218  -1.8775  -1.7837  -1.6464  -1.5891  -1.5618
    -1.5214  -1.4684  -1.4535  -1.4419  -1.3996  -1.3485  -1.3384  -1.3342
    -1.3298  -1.3202  -1.3011  -1.2894  -1.2756  -1.2619  -1.2524  -1.2320
    -1.2228  -1.2078  -1.1840  -1.1302  -1.1268  -1.1106  -1.0701  -1.0580
    -0.9793  -0.9712  -0.9452  -0.9421  -0.9327  -0.9153  -0.9048  -0.8853
    -0.8769  -0.8525  -0.8241  -0.7936  -0.7775  -0.7641  -0.6715  -0.6690
    -0.6299  -0.6278  -0.6033  -0.5616  -0.5103  -0.4697  -0.4403  -0.4254
    -0.2860  -0.2589  -0.1278  -0.1104  -0.0553  -0.0434  -0.0380  -0.0054
     0.0154   0.0233   0.0410   0.0969   0.1538   0.1815   0.1993   0.2453
     0.2557   0.2819   0.3057   0.3577   0.3731   0.3926   0.4852   0.4902
     0.5129   0.5240   0.5559   0.6256   0.6785   0.7185   0.7317   0.7430
     0.7674   0.8101   0.8312   0.9509   0.9833   0.9942   0.9994   1.0209
     1.0546   1.0600   1.0822   1.1331   1.1647   1.1785   1.1919   1.1956
     1.2032   1.2246   1.2287   1.2338   1.2523   1.2639   1.2858   1.2963
     1.3154   1.3342   1.3483   1.3717   1.4166   1.4281   1.4312   1.4440
     1.4454   1.4703   1.5018   1.5228   1.5374   1.5733   1.5777   1.5847
     1.6008   1.6083   1.6362   1.6384   1.6865   1.6915   1.7013   1.7307
     1.7408   1.8706   1.8932   1.9599   1.9932   2.0205   2.0273   2.0378
     2.0500   2.1827   2.3781   2.6086   2.8272   2.9088   2.9306   2.9820
     3.1281   3.8230   3.9286   5.1490   5.2159   5.2445   5.2588   5.2792
     5.9974   6.2386   6.7212   6.8086   6.8204   6.8413   6.8710   6.8731

[...]

          k = 0.4000-0.4619 0.0000 ( 88464 PWs)   bands (ev):

   -13.8647 -10.8493  -6.2665  -5.8874  -5.8739  -5.2892  -5.0160  -4.6598
    -4.4509  -4.2319  -4.0532  -3.9939  -3.9622  -3.9049  -3.8178  -3.7574
    -3.7119  -3.6886  -3.6508  -3.6446  -3.5867  -3.5658  -3.5483  -3.5301
    -3.5057  -3.3889  -3.3690  -3.3456  -3.3339  -3.2860  -3.2364  -3.2144
    -3.1457  -3.1106  -3.0895  -2.9975  -2.9764  -2.9568  -2.9442  -2.9136
    -2.8397  -2.8295  -2.7485  -2.6647  -2.5415  -2.5283  -2.4903  -2.4296
    -2.3967  -2.3479  -2.3230  -2.2223  -2.2112  -2.1718  -2.1508  -2.1141
    -2.1086  -2.0620  -2.0463  -1.9953  -1.9682  -1.9430  -1.9121  -1.8859
    -1.8719  -1.8564  -1.8532  -1.7785  -1.7484  -1.6928  -1.6593  -1.6181
    -1.5769  -1.5619  -1.5030  -1.4714  -1.4642  -1.4249  -1.4151  -1.3970
    -1.3888  -1.3477  -1.2837  -1.2387  -1.2238  -1.2079  -1.2014  -1.1559
    -1.1007  -1.0790  -1.0508  -1.0401  -0.9590  -0.9424  -0.9090  -0.8805
    -0.8607  -0.8326  -0.8215  -0.7732  -0.7620  -0.7494  -0.7417  -0.7113
    -0.6968  -0.6600  -0.6468  -0.6369  -0.6169  -0.5953  -0.5808  -0.5744
    -0.5467  -0.5172  -0.4576  -0.4019  -0.2978  -0.2587  -0.2091  -0.1957
    -0.1312  -0.1221  -0.1087  -0.0747  -0.0141  -0.0016   0.0132   0.0493
     0.0613   0.0895   0.1190   0.1344   0.1877   0.2352   0.2756   0.2885
     0.3839   0.4063   0.4410   0.4742   0.4981   0.5136   0.5899   0.6211
     0.6626   0.6856   0.6998   0.7193   0.7474   0.7724   0.8055   0.8634
     0.8833   0.9195   0.9342   0.9524   1.0015   1.0438   1.0743   1.1012
     1.1921   1.2584   1.2962   1.3172   1.3874   1.4030   1.4219   1.4858
     1.5282   1.5570   1.5954   1.6173   1.6844   1.7131   1.7426   1.7537
     1.7705   1.7761   1.8257   1.8752   1.8917   1.9131   1.9422   1.9489
     1.9557   1.9637   2.0421   2.1268   2.1277   2.1528   2.1804   2.1904
     2.2333   2.2509   2.3675   2.4773   2.5768   2.6063   3.0765   3.3351
     3.3479   3.4827   3.6517   3.7438   3.7647   3.7876   4.0926   4.3264
     4.3631   4.4561   4.7951   4.8744   4.9332   4.9856   5.0447   5.0972
     5.2422   5.3266   5.5404   5.7422   5.8466   5.9167   6.2601   6.4333

     the Fermi energy is     1.9649 ev

!    total energy              =  -27812.23321356 Ry

     total all-electron energy =  -1326872.290922 Ry
     estimated scf accuracy    <       0.00000098 Ry
     smearing contrib. (-TS)   =       0.00154267 Ry
     internal energy E=F+TS    =  -27812.23475622 Ry

     The total energy is F=E-TS. E is the sum of the following terms:
     one-electron contribution =  -26709.91052022 Ry
     hartree contribution      =   13658.91489581 Ry
     xc contribution           =    -904.93787433 Ry
     ewald contribution        =   11637.35648341 Ry
     one-center paw contrib.   =  -25493.65774089 Ry

     convergence has been achieved in  19 iterations

[...]

     Forces acting on atoms (cartesian axes, Ry/au):

     atom    1 type  1   force =     0.00110586    0.00032891   -0.00829413
     atom    2 type  1   force =    -0.00177132    0.00070693   -0.00344090
     atom    3 type  1   force =     0.00067431    0.00036164   -0.00256817
     atom    4 type  1   force =     0.00070435   -0.00054810   -0.00848776
     atom    5 type  1   force =    -0.00115444    0.00054358   -0.00349436
     atom    6 type  1   force =     0.00141375   -0.00050979   -0.00320829
     atom    7 type  1   force =    -0.00028141   -0.00088450   -0.00320643
     atom    8 type  1   force =    -0.00056340    0.00109740   -0.00319376
     atom    9 type  1   force =     0.00031980   -0.00059601   -0.00305082
     atom   10 type  1   force =    -0.00003023   -0.00010109   -0.00204135
     atom   11 type  1   force =     0.00058189    0.00200453    0.00806864
     atom   12 type  1   force =    -0.00092491    0.00066584   -0.00125190
     atom   13 type  1   force =     0.00279466   -0.00034564    0.00567446
     atom   14 type  1   force =    -0.00155006   -0.00013208    0.01399505
     atom   15 type  1   force =    -0.00109641    0.00006298    0.00009009
     atom   16 type  1   force =     0.00224964   -0.00107937    0.00395915
     atom   17 type  1   force =    -0.00191263   -0.00069542    0.00720389
     atom   18 type  1   force =    -0.00039871    0.00007730   -0.00048211
     atom   19 type  1   force =     0.00018629    0.00003517    0.00025737
     atom   20 type  1   force =     0.00006676   -0.00014554    0.00061248
     atom   21 type  1   force =    -0.00011645   -0.00013655    0.00052895
     atom   22 type  1   force =    -0.00020228   -0.00002023    0.00034673
     atom   23 type  1   force =     0.00002004   -0.00027264    0.00047350
     atom   24 type  1   force =     0.00034150   -0.00007859    0.00032080
     atom   25 type  1   force =    -0.00015480    0.00004552    0.00022085
     atom   26 type  1   force =     0.00001144    0.00010208    0.00017831
     atom   27 type  1   force =     0.00033106    0.00003602    0.00030002
     atom   28 type  1   force =     0.00006670    0.00000928    0.00016142
     atom   29 type  1   force =     0.00030784    0.00025171    0.00029185
     atom   30 type  1   force =     0.00021515   -0.00022140    0.00045188
     atom   31 type  1   force =     0.00008195    0.00001818    0.00024443
     atom   32 type  1   force =    -0.00025589   -0.00066091    0.00014685
     atom   33 type  1   force =     0.00036637   -0.00024869    0.00024695
     atom   34 type  1   force =    -0.00006415   -0.00006304    0.00002906
     atom   35 type  1   force =     0.00007032    0.00001706    0.00073077
     atom   36 type  1   force =     0.00031128   -0.00003976    0.00043516
     atom   37 type  2   force =    -0.00417376   -0.00622343    0.00788421
     atom   38 type  2   force =    -0.00027891    0.00191999   -0.00154349
     atom   39 type  2   force =    -0.00003020    0.00008950   -0.00223169
     atom   40 type  3   force =     0.00273903    0.00462916   -0.00635773

     Total force =     0.014243     Total SCF correction =     0.001423

[...]

     negative rho (up, down):  1.226E-02 0.000E+00

     negative rho (up, down):  1.226E-02 0.000E+00
 BEEFens 2000 ensemble energies
             -0.605744124654493E+02
             -0.361119353503858E+01
             -0.158098425573257E+02
              0.428512486700246E+02
             -0.220720932971080E+02
             -0.204973986797293E+02
             -0.351504586471565E+02
             -0.863262735903680E+02
             -0.464410105512706E+02
             -0.471872108909741E+02
             -0.368708904139921E+02
              0.227627667623000E+01
              0.407761576611705E+01
              0.760838991923876E+01
              0.264870804805858E+01
              0.474133351650221E+02
             -0.208352385893627E+02
             -0.229966118658996E+02
              0.192738968521360E+02
             -0.112190078757966E+03
              0.535364531112295E+02
             -0.289392437563511E+02
             -0.332269680271182E+01
             -0.113836656742517E+02
             -0.883940575051372E+01
             -0.463257479303465E+01
              0.881171297047583E+02
             -0.186821995862655E+02
             -0.898835407541605E+01
             -0.517617507688738E+02
              0.814206617539096E+02
             -0.187081864884906E+02
             -0.374252806649769E+02
              0.248891129606628E+02
             -0.283156508289909E+01
              0.163715258074711E+02
             -0.485063643671180E+01
              0.107978649250154E+02
              0.287828253856362E+02
             -0.103088913869361E+03
              0.557322476439311E+02
              0.142239948743989E+02
             -0.170839347363437E+01
             -0.360984011142681E+02
              0.122989476337391E+02
             -0.146369100936994E+02
              0.397567276301593E+02
              0.364218481227801E+02
             -0.307630304623666E+02
             -0.274652787920378E+02
             -0.327923205614554E+02
             -0.351537450461814E+02
              0.136057605015183E+02
             -0.489944493289897E+02
              0.115289205520050E+02
              0.622128358824010E+02
              0.634147023888182E+02
              0.355166825684232E+02
              0.153767057971939E+02
              0.269999882202186E+02
[...]
             -0.704834467413694E+02
             -0.904727918283356E+00
             -0.247940074598357E+01
             -0.880908098624161E+01
             -0.179543995641006E+01
             -0.651637669461729E+02
             -0.210377464129868E+02
              0.537071787859632E+01
              0.897473016725405E+01
              0.467929061252674E+02
             -0.397061139676016E+02
              0.656154281176294E+02
             -0.424478167399714E+02
              0.209936093642195E+02
              0.349581181350117E+02

 BEEF-vdW xc energy contributions
           1 :   -781.470010487345
           2 :    718.093727403753
           3 :   -608.202252172488
           4 :    478.619799243949
           5 :   -356.788015634859
           6 :    262.591552851430
           7 :   -203.774408979460
           8 :    175.870985791655
           9 :   -166.217710464536
          10 :    160.128284778187
          11 :   -146.700688100621
          12 :    122.074805681222
          13 :   -89.3015636022329
          14 :    55.4360407509330
          15 :   -27.5349466072028
          16 :    9.37569238042863
          17 :  -0.172072360266839
          18 :   -4.46552529687153
          19 :    10.0428461366454
          20 :   -20.4728797954391
          21 :    36.3845754900444
          22 :   -55.1217557343700
          23 :    72.2621438969862
          24 :   -83.8256989700038
          25 :    88.0868688923679
          26 :   -86.1969121036950
          27 :    81.4279898926343
          28 :   -77.4940946766811
          29 :    76.7866890631129
          30 :   -79.3604679998790
          31 :   -85.6763457399666
          32 :   -65.7010263343229

     Writing output data file ./pwscf.save/

     General routines

     Parallel routines

   This run was terminated on:  14: 1: 1   4Jan2023

   JOB DONE.