     Program PWSCF v.6.7MaX starts on  4Jan2023 at 10:16: 0

     Reading input from chcch-tri-ensemble.in
Warning: card &CELL ignored
Warning: card / ignored

     Current dimensions of program PWSCF are:
     Max number of different atomic species (ntypx) = 10
     Max number of k-points (npk) =  40000
     Max angular momentum in pseudopotentials (lmaxx) =  3
     file Pt.pbe-n-kjpaw_psl.1.0.0.UPF: wavefunction(s)  6S 5D renormalized
     file C.pbe-n-kjpaw_psl.1.0.0.UPF: wavefunction(s)  2S 2P renormalized
     file H.pbe-kjpaw_psl.1.0.0.UPF: wavefunction(s)  1S renormalized

     IMPORTANT: XC functional enforced from input :
     Exchange-correlation= BEEF-VDW
                           (   1   4  43  14   2   0   0)
     Any further DFT definition will be discarded
     Please, verify this is what you really want

     Subspace diagonalization in iterative solution of the eigenvalue problem:
     a serial algorithm will be used

     bravais-lattice index     =            0
     lattice parameter (alat)  =      16.0349  a.u.
     unit-cell volume          =   11130.4147 (a.u.)^3
     number of atoms/cell      =           41
     number of atomic types    =            3
     number of electrons       =       374.00
     number of Kohn-Sham states=          224
     kinetic-energy cutoff     =      60.0000  Ry
     charge density cutoff     =     240.0000  Ry
     scf convergence threshold =      1.0E-06
     mixing beta               =       0.7000
     number of iterations used =            8  local-TF  mixing
     Exchange-correlation= BEEF-VDW
                           (   1   4  43  14   2   0   0)

     celldm(1)=  16.034858  celldm(2)=   0.000000  celldm(3)=   0.000000
     celldm(4)=   0.000000  celldm(5)=   0.000000  celldm(6)=   0.000000

     crystal axes: (cart. coord. in units of alat)
               a(1) = (   1.000000   0.000000   0.000000 )
               a(2) = (   0.500000   0.866025   0.000000 )
               a(3) = (   0.000000   0.000000   3.117349 )

     reciprocal axes: (cart. coord. in units 2 pi/alat)
               b(1) = (  1.000000 -0.577350  0.000000 )
               b(2) = (  0.000000  1.154701  0.000000 )
               b(3) = (  0.000000  0.000000  0.320785 )

     PseudoPot. # 1 for Pt read from file:
     /users/bkreitz1/quantum-espresso/potentials/Pt.pbe-n-kjpaw_psl.1.0.0.UPF
     MD5 check sum: 04dc8a03c51ece93fc7b5889c2958091
     Pseudo is Projector augmented-wave + core cor, Zval = 10.0
     Generated using 'atomic' code by A. Dal Corso  v.6.7MaX
     Shape of augmentation charge: PSQ
     Using radial grid of 1277 points,  6 beta functions with:
                l(1) =   0
                l(2) =   0
                l(3) =   1
                l(4) =   1
                l(5) =   2
                l(6) =   2
     Q(r) pseudized with 0 coefficients

     PseudoPot. # 2 for C  read from file:
     /users/bkreitz1/quantum-espresso/potentials/C.pbe-n-kjpaw_psl.1.0.0.UPF
     MD5 check sum: a169b0ebad56f5ec0d79c4633f80bf22
     Pseudo is Projector augmented-wave + core cor, Zval =  4.0
     Generated using 'atomic' code by A. Dal Corso  v.6.7MaX
     Shape of augmentation charge: PSQ
     Using radial grid of 1073 points,  4 beta functions with:
                l(1) =   0
                l(2) =   0
                l(3) =   1
                l(4) =   1
     Q(r) pseudized with 0 coefficients

     PseudoPot. # 3 for H  read from file:
     /users/bkreitz1/quantum-espresso/potentials/H.pbe-kjpaw_psl.1.0.0.UPF
     MD5 check sum: ae98473e6dc62675f0d0baffdab24f65
     Pseudo is Projector augmented-wave, Zval =  1.0
     Generated using 'atomic' code by A. Dal Corso  v.6.7MaX
     Shape of augmentation charge: PSQ
     Using radial grid of  929 points,  2 beta functions with:
                l(1) =   0
                l(2) =   0
     Q(r) pseudized with 0 coefficients

     atomic species   valence    mass     pseudopotential
        Pt            10.00   195.08400     Pt( 1.00)
        C              4.00    12.01100     C ( 1.00)
        H              1.00     1.00800     H ( 1.00)

     No symmetry found

   Cartesian axes

     site n.     atom                  positions (alat units)
         1           Pt  tau(   1) = (   0.0000000   0.0000000   1.0017346  )
         2           Pt  tau(   2) = (   0.3333333   0.0000000   1.0017346  )
         3           Pt  tau(   3) = (   0.6666667   0.0000000   1.0017346  )
         4           Pt  tau(   4) = (   0.1666667   0.2886751   1.0017346  )
         5           Pt  tau(   5) = (   0.5000000   0.2886751   1.0017346  )
         6           Pt  tau(   6) = (   0.8333333   0.2886751   1.0017346  )
         7           Pt  tau(   7) = (   0.3333333   0.5773503   1.0017346  )
         8           Pt  tau(   8) = (   0.6666667   0.5773503   1.0017346  )
         9           Pt  tau(   9) = (   1.0000000   0.5773503   1.0017346  )
        10           Pt  tau(  10) = (   0.1666667   0.0962250   1.2739001  )
        11           Pt  tau(  11) = (   0.5000000   0.0962250   1.2739001  )
        12           Pt  tau(  12) = (   0.8333333   0.0962250   1.2739001  )
        13           Pt  tau(  13) = (   0.3333333   0.3849002   1.2739001  )
        14           Pt  tau(  14) = (   0.6666667   0.3849002   1.2739001  )
        15           Pt  tau(  15) = (   1.0000000   0.3849002   1.2739001  )
        16           Pt  tau(  16) = (   0.5000000   0.6735753   1.2739001  )
        17           Pt  tau(  17) = (   0.8333333   0.6735753   1.2739001  )
        18           Pt  tau(  18) = (   1.1666667   0.6735753   1.2739001  )
        19           Pt  tau(  19) = (  -0.0016554   0.1945541   1.5491714  )
        20           Pt  tau(  20) = (   0.3330256   0.1882296   1.5454451  )
        21           Pt  tau(  21) = (   0.6701271   0.1947093   1.5441513  )
        22           Pt  tau(  22) = (   0.1656940   0.4826960   1.5485852  )
        23           Pt  tau(  23) = (   0.5027409   0.4824546   1.5423159  )
        24           Pt  tau(  24) = (   0.8362469   0.4820211   1.5456496  )
        25           Pt  tau(  25) = (   0.3355650   0.7707267   1.5411642  )
        26           Pt  tau(  26) = (   0.6680864   0.7691283   1.5477579  )
        27           Pt  tau(  27) = (   1.0009829   0.7714389   1.5450125  )
        28           Pt  tau(  28) = (   0.0058938   0.0020700   1.8186612  )
        29           Pt  tau(  29) = (   0.3414475   0.0049210   1.8394095  )
        30           Pt  tau(  30) = (   0.6792695   0.0055264   1.8140278  )
        31           Pt  tau(  31) = (   0.1763325   0.2859009   1.8200070  )
        32           Pt  tau(  32) = (   0.5002322   0.2858711   1.8135305  )
        33           Pt  tau(  33) = (   0.8446234   0.2873945   1.8395604  )
        34           Pt  tau(  34) = (   0.3417061   0.5788211   1.8154430  )
        35           Pt  tau(  35) = (   0.6629123   0.5735139   1.8224060  )
        36           Pt  tau(  36) = (   1.0218985   0.5783049   1.8267117  )
        37           C   tau(  37) = (   0.7686722   0.4317378   2.0146637  )
        38           C   tau(  38) = (   0.8390436   0.5785209   1.9985247  )
        39           C   tau(  39) = (   0.9099795   0.7240608   2.0149363  )
        40           H   tau(  40) = (   0.6994279   0.3927517   2.1148798  )
        41           H   tau(  41) = (   0.9782179   0.7633581   2.1169112  )

     number of k points=    13  Marzari-Vanderbilt smearing, width (Ry)=  0.0200
                       cart. coord. in units 2pi/alat
        k(    1) = (   0.0000000   0.0000000   0.0000000), wk =   0.0800000
        k(    2) = (   0.0000000   0.2309401   0.0000000), wk =   0.1600000
        k(    3) = (   0.0000000   0.4618802   0.0000000), wk =   0.1600000
        k(    4) = (   0.2000000  -0.1154701   0.0000000), wk =   0.1600000
        k(    5) = (   0.2000000   0.1154701   0.0000000), wk =   0.1600000
        k(    6) = (   0.2000000   0.3464102   0.0000000), wk =   0.1600000
        k(    7) = (   0.2000000  -0.5773503   0.0000000), wk =   0.1600000
        k(    8) = (   0.2000000  -0.3464102   0.0000000), wk =   0.1600000
        k(    9) = (   0.4000000  -0.2309401   0.0000000), wk =   0.1600000
        k(   10) = (   0.4000000  -0.0000000   0.0000000), wk =   0.1600000
        k(   11) = (   0.4000000   0.2309401   0.0000000), wk =   0.1600000
        k(   12) = (   0.4000000  -0.6928203   0.0000000), wk =   0.1600000
        k(   13) = (   0.4000000  -0.4618802   0.0000000), wk =   0.1600000

     Check: negative core charge=   -0.000002

     Initial potential from superposition of free atoms

     starting charge  373.99375, renormalised to  374.00000

     negative rho (up, down):  1.154E-02 0.000E+00

     %%%%%%%%%%%%%%%%%%%%%%%%%%%%%%%%%%%%%%%%%%%%%%%%%%%%%%%%%%%%%%%%%%%%%%%%
     %                                                                      %
     % You are using vdW-DF, which was implemented by the Thonhauser group. %
     % Please cite the following two papers that made this development      %
     % possible and the two reviews that describe the various versions:     %
     %                                                                      %
     %   T. Thonhauser et al., PRL 115, 136402 (2015).                      %
     %   T. Thonhauser et al., PRB 76, 125112 (2007).                       %
     %   K. Berland et al., Rep. Prog. Phys. 78, 066501 (2015).             %
     %   D.C. Langreth et al., J. Phys.: Condens. Matter 21, 084203 (2009). %
     %                                                                      %
     %                                                                      %
     % If you are calculating the stress with vdW-DF, please also cite:     %
     %                                                                      %
     %   R. Sabatini et al., J. Phys.: Condens. Matter 24, 424209 (2012).   %
     %                                                                      %
     %%%%%%%%%%%%%%%%%%%%%%%%%%%%%%%%%%%%%%%%%%%%%%%%%%%%%%%%%%%%%%%%%%%%%%%%

     Starting wfcs are  338 randomized atomic wfcs
     Checking if some PAW data can be deallocated...

     Self-consistent Calculation

     iteration #  1     ecut=    60.00 Ry     beta= 0.70
     Davidson diagonalization with overlap
     ethr =  1.00E-02,  avg # of iterations =  2.0

     Threshold (ethr) on eigenvalues was too large:
     Diagonalizing with lowered threshold

     Davidson diagonalization with overlap
     ethr =  7.90E-04,  avg # of iterations =  2.8

[...]

     total energy              =  -27813.20847821 Ry
     estimated scf accuracy    <       3.26742258 Ry

[...]

     iteration #  5     ecut=    60.00 Ry     beta= 0.70
     Davidson diagonalization with overlap
     c_bands:  1 eigenvalues not converged
     c_bands:  1 eigenvalues not converged
     c_bands:  1 eigenvalues not converged
     c_bands:  1 eigenvalues not converged
     c_bands:  1 eigenvalues not converged
     ethr =  3.23E-05,  avg # of iterations = 15.7

[...]

     iteration # 10     ecut=    60.00 Ry     beta= 0.70
     Davidson diagonalization with overlap
     c_bands:  1 eigenvalues not converged
     c_bands:  1 eigenvalues not converged
     ethr =  6.47E-07,  avg # of iterations = 10.1

[...]

     total energy              =  -27813.61172032 Ry
     estimated scf accuracy    <       0.00000101 Ry

     iteration # 20     ecut=    60.00 Ry     beta= 0.70
     Davidson diagonalization with overlap
     ethr =  2.69E-10,  avg # of iterations =  2.8

[...]

     End of self-consistent calculation

          k = 0.0000 0.0000 0.0000 ( 87471 PWs)   bands (ev):

   -14.3973 -11.7376  -7.3199  -6.5537  -5.7095  -5.5521  -4.8170  -4.7593
    -4.1697  -4.1414  -4.1338  -4.1160  -4.1007  -4.0710  -4.0066  -3.8184
    -3.7742  -3.6288  -3.5820  -3.5657  -3.5125  -3.4958  -3.4179  -3.2556
    -3.1834  -3.1310  -3.0624  -3.0270  -2.9634  -2.9184  -2.9058  -2.8950
    -2.8590  -2.8253  -2.7939  -2.7704  -2.7326  -2.7038  -2.6749  -2.6500
    -2.6300  -2.6127  -2.5940  -2.5768  -2.5664  -2.5120  -2.3241  -2.1914
    -2.1505  -2.0730  -2.0631  -2.0435  -2.0265  -2.0118  -1.9884  -1.9234
    -1.8940  -1.8009  -1.7788  -1.7609  -1.6750  -1.4861  -1.4094  -1.3809
    -1.3301  -1.2925  -1.2723  -1.2669  -1.2516  -1.1685  -1.1340  -1.1100
    -1.0723  -1.0625  -1.0400  -1.0311  -1.0254  -1.0182  -1.0059  -0.9673
    -0.9540  -0.9407  -0.9312  -0.9139  -0.8971  -0.8773  -0.8695  -0.8570
    -0.8407  -0.8071  -0.7950  -0.6926  -0.6565  -0.6495  -0.6151  -0.5981
    -0.5699  -0.5557  -0.5372  -0.5042  -0.5019  -0.4639  -0.4023  -0.3977
    -0.3705  -0.3552  -0.3491  -0.3446  -0.3236  -0.2769  -0.2454  -0.2106
    -0.2094  -0.1305  -0.0869   0.0180   0.0588   0.1548   0.1760   0.2485
     0.2826   0.2922   0.3063   0.3475   0.4127   0.4572   0.4619   0.4887
     0.5098   0.5217   0.5338   0.5447   0.5683   0.5796   0.6284   0.7314
     0.7798   0.8002   0.8098   0.8409   0.9359   0.9596   0.9814   0.9996
     1.0174   1.0318   1.0765   1.0908   1.1365   1.1734   1.2377   1.2428
     1.2679   1.3022   1.3082   1.3477   1.3572   1.3780   1.3991   1.4517
     1.4637   1.4756   1.4920   1.5055   1.5083   1.5103   1.5245   1.5361
     1.5457   1.5746   1.5815   1.6228   1.6541   1.6909   1.7106   1.7179
     1.7278   1.7412   1.7663   1.7977   1.8309   1.8324   1.8451   1.8579
     1.8636   1.8878   1.9049   1.9111   1.9519   1.9536   2.0020   2.0137
     2.0253   2.1371   2.1799   2.2145   2.2332   2.2750   2.2895   2.3049
     2.3228   2.5615   2.6407   2.7129   3.0919   3.1444   3.1587   3.5714
     3.6592   4.4672   4.8782   5.2987   5.3888   5.4172   5.7146   5.8081
     6.2207   6.2424   6.5250   6.7768   6.9187   7.0903   7.1247   7.1687

[...]

          k = 0.4000-0.4619 0.0000 ( 87386 PWs)   bands (ev):

   -14.3959 -11.7385  -7.3125  -5.7110  -5.6304  -5.6209  -5.0865  -4.9394
    -4.7749  -4.1830  -4.1539  -3.9318  -3.7475  -3.6605  -3.6423  -3.5634
    -3.4995  -3.4427  -3.3959  -3.3724  -3.3599  -3.2798  -3.2731  -3.2611
    -3.2462  -3.1972  -3.1669  -3.1175  -3.0657  -3.0576  -3.0281  -2.9989
    -2.9404  -2.8523  -2.8173  -2.8040  -2.7571  -2.7142  -2.6633  -2.6353
    -2.6165  -2.6076  -2.4835  -2.4466  -2.3581  -2.3032  -2.2504  -2.2419
    -2.1855  -2.1498  -2.1145  -2.0517  -1.9802  -1.9674  -1.9469  -1.9223
    -1.8832  -1.8333  -1.7970  -1.7730  -1.7566  -1.7086  -1.6930  -1.6815
    -1.6355  -1.6150  -1.5824  -1.5508  -1.5284  -1.4994  -1.4738  -1.4113
    -1.3806  -1.3430  -1.3246  -1.2895  -1.2110  -1.2000  -1.1649  -1.1418
    -1.1218  -1.0738  -1.0593  -1.0127  -0.9730  -0.9594  -0.9236  -0.9193
    -0.8766  -0.8033  -0.7938  -0.7837  -0.7747  -0.7263  -0.6971  -0.6538
    -0.6005  -0.5785  -0.5541  -0.5397  -0.5118  -0.4951  -0.4618  -0.4527
    -0.4340  -0.4226  -0.3855  -0.3680  -0.3439  -0.3142  -0.3055  -0.3030
    -0.2912  -0.2616  -0.2122  -0.1794  -0.1309  -0.0828  -0.0149   0.0033
     0.0555   0.1219   0.1477   0.1594   0.1674   0.2094   0.2303   0.2707
     0.3219   0.3457   0.3792   0.3969   0.4134   0.4489   0.5207   0.5523
     0.5836   0.6083   0.6454   0.6755   0.7348   0.7691   0.8297   0.8631
     0.8803   0.9025   0.9212   0.9545   0.9866   1.0243   1.0511   1.0906
     1.0978   1.1173   1.1472   1.2023   1.2149   1.2501   1.3004   1.3555
     1.4193   1.4468   1.5101   1.5710   1.6148   1.6567   1.6903   1.7151
     1.7881   1.8125   1.8349   1.8980   1.9239   1.9524   1.9772   2.0134
     2.0271   2.0615   2.1173   2.1303   2.1521   2.1606   2.1777   2.1947
     2.2342   2.2887   2.3266   2.3456   2.3891   2.4282   2.4469   2.4796
     2.4908   2.5479   2.6034   2.7266   2.9235   3.1137   3.1777   3.5846
     3.6625   3.8351   3.9153   3.9771   4.0391   4.1477   4.3586   4.5054
     4.6204   4.7445   4.9342   5.0815   5.2154   5.2914   5.4253   5.4882
     5.5387   5.5757   5.7042   5.8398   6.1608   6.2101   6.5471   6.6379

     the Fermi energy is     2.2463 ev

!    total energy              =  -27813.61172021 Ry

     total all-electron energy =  -1326873.669424 Ry
     estimated scf accuracy    <       0.00000059 Ry
     smearing contrib. (-TS)   =       0.00231775 Ry
     internal energy E=F+TS    =  -27813.61403796 Ry

     The total energy is F=E-TS. E is the sum of the following terms:
     one-electron contribution =  -26211.02076388 Ry
     hartree contribution      =   13413.04478588 Ry
     xc contribution           =    -905.98839787 Ry
     ewald contribution        =   11384.01871380 Ry
     one-center paw contrib.   =  -25493.66837589 Ry

     convergence has been achieved in  20 iterations

[...]

     Forces acting on atoms (cartesian axes, Ry/au):

     atom    1 type  1   force =    -0.00014889   -0.00019884   -0.00306476
     atom    2 type  1   force =     0.00201794   -0.00104012   -0.00551497
     atom    3 type  1   force =    -0.00103410    0.00023382   -0.00508174
     atom    4 type  1   force =    -0.00145964    0.00094095   -0.00501819
     atom    5 type  1   force =     0.00164811   -0.00191003   -0.00597175
     atom    6 type  1   force =    -0.00038354   -0.00059974   -0.00453605
     atom    7 type  1   force =    -0.00135306    0.00127655   -0.00504391
     atom    8 type  1   force =    -0.00060648   -0.00004732   -0.00346742
     atom    9 type  1   force =     0.00079666   -0.00009204   -0.00474056
     atom   10 type  1   force =     0.00148760    0.00092717    0.00569879
     atom   11 type  1   force =    -0.00296552    0.00292227    0.00213968
     atom   12 type  1   force =     0.00274091    0.00279890    0.00680078
     atom   13 type  1   force =    -0.00255674   -0.00015873    0.00356744
     atom   14 type  1   force =    -0.00117645   -0.00044830    0.00387147
     atom   15 type  1   force =     0.00419089   -0.00204266    0.01030543
     atom   16 type  1   force =     0.00161639    0.00014952    0.00015506
     atom   17 type  1   force =    -0.00179847    0.00268430    0.00701881
     atom   18 type  1   force =    -0.00014152   -0.00401815    0.00348621
     atom   19 type  1   force =     0.00024127   -0.00032691    0.00009060
     atom   20 type  1   force =     0.00017269   -0.00025519    0.00032324
     atom   21 type  1   force =     0.00017743   -0.00044738    0.00022130
     atom   22 type  1   force =    -0.00020323   -0.00009382   -0.00002985
     atom   23 type  1   force =     0.00015886    0.00007173    0.00014990
     atom   24 type  1   force =    -0.00009592   -0.00017592    0.00005608
     atom   25 type  1   force =    -0.00003337   -0.00003144   -0.00024221
     atom   26 type  1   force =     0.00018288   -0.00011546   -0.00000628
     atom   27 type  1   force =     0.00015053    0.00014959    0.00006826
     atom   28 type  1   force =     0.00028482    0.00008818    0.00010323
     atom   29 type  1   force =     0.00016178    0.00041934    0.00000190
     atom   30 type  1   force =     0.00002537   -0.00019426    0.00003801
     atom   31 type  1   force =     0.00013792   -0.00031918    0.00009658
     atom   32 type  1   force =    -0.00021489   -0.00024678    0.00009301
     atom   33 type  1   force =     0.00030995    0.00026317    0.00024666
     atom   34 type  1   force =    -0.00033195   -0.00020823    0.00005572
     atom   35 type  1   force =    -0.00031032    0.00009894    0.00038561
     atom   36 type  1   force =     0.00004777    0.00001990    0.00007428
     atom   37 type  2   force =    -0.00025258    0.00137631   -0.00105312
     atom   38 type  2   force =    -0.00074377   -0.00029999   -0.00082050
     atom   39 type  2   force =     0.00358140    0.00154086    0.00762057
     atom   40 type  3   force =     0.00051980    0.00013289    0.00013588
     atom   41 type  3   force =    -0.00484053   -0.00282392   -0.00821317

     Total force =     0.013380     Total SCF correction =     0.001603
     SCF correction compared to forces is large: reduce conv_thr to get better values

[...]

     negative rho (up, down):  1.288E-02 0.000E+00

     negative rho (up, down):  1.288E-02 0.000E+00
 BEEFens 2000 ensemble energies
             -0.606196600845906E+02
             -0.361881931124123E+01
             -0.158401266209649E+02
              0.428944518963237E+02
             -0.220849878709914E+02
             -0.205288002434763E+02
             -0.351622155068047E+02
             -0.864139956280978E+02
             -0.465158943916104E+02
             -0.472654247101499E+02
             -0.368992813494125E+02
              0.224128270675481E+01
              0.408147642056323E+01
              0.764139115483107E+01
              0.265656838878635E+01
              0.474541602546476E+02
             -0.208791136305568E+02
             -0.230661641637283E+02
              0.192865445835643E+02
             -0.112290859603879E+03
              0.535850296910760E+02
             -0.289735432534260E+02
             -0.333613116274349E+01
             -0.113947372799732E+02
             -0.887634560816241E+01
             -0.467318063971831E+01
              0.882094035392226E+02
             -0.186377385330849E+02
             -0.902071030142110E+01
             -0.518062679927475E+02
              0.815528373656932E+02
             -0.187722808669224E+02
             -0.374782286331238E+02
              0.249409272264970E+02
             -0.283074584368137E+01
              0.163639953662128E+02
             -0.486312739734956E+01
              0.108207110565864E+02
              0.287643132312005E+02
             -0.103227936033258E+03
              0.557754311217821E+02
              0.142230928305132E+02
             -0.166705105506469E+01
             -0.361576296383000E+02
              0.123043775138834E+02
             -0.146130131755466E+02
              0.397976293683519E+02
              0.364625991371261E+02
             -0.308168642352080E+02
             -0.275017527529376E+02
             -0.328173104445683E+02
             -0.351655916766243E+02
              0.135687578294445E+02
             -0.490640978827831E+02
              0.115266269256324E+02
              0.622560229265662E+02
              0.634454182175906E+02
              0.355434023120323E+02
              0.154126802122305E+02
              0.269958778411454E+02
[...]
             -0.705390923479445E+02
             -0.947529980778768E+00
             -0.245955462101616E+01
             -0.881750779483991E+01
             -0.177809633572048E+01
             -0.652308997383284E+02
             -0.211028167010151E+02
              0.536347679201615E+01
              0.894228402811646E+01
              0.468275464971299E+02
             -0.397300568991969E+02
              0.657186888795073E+02
             -0.424916737223807E+02
              0.209854021678050E+02
              0.349888466860694E+02

 BEEF-vdW xc energy contributions
           1 :   -782.397995824213
           2 :    719.128932426813
           3 :   -609.348482475872
           4 :    479.754718127699
           5 :   -357.733085701030
           6 :    263.211918934317
           7 :   -204.033142396368
           8 :    175.820926674087
           9 :   -165.958225659522
          10 :    159.757034265394
          11 :   -146.285435162015
          12 :    121.652589507479
          13 :   -88.8935491724330
          14 :    55.0639218616718
          15 :   -27.2238742862709
          16 :    9.14490996376287
          17 :  -2.263891399945805E-002
          18 :   -4.55413648280580
          19 :    10.1002898334880
          20 :   -20.5185742950799
          21 :    36.4174222120273
          22 :   -55.1238477739770
          23 :    72.2144163262413
          24 :   -83.7251947975386
          25 :    87.9552983622143
          26 :   -86.0740088932798
          27 :    81.3512008049566
          28 :   -77.4744038863673
          29 :    76.7988533416410
          30 :   -79.3571103519550
          31 :   -85.8022904665449
          32 :   -65.8515024848691

     Writing output data file ./pwscf.save/

     General routines

     Parallel routines

   This run was terminated on:  13:50:20   4Jan2023

   JOB DONE.