     Program PWSCF v.6.7MaX starts on  3Jan2023 at 22:46: 5

     Reading input from chcch3-ensemble.in
Warning: card &CELL ignored
Warning: card / ignored

     Current dimensions of program PWSCF are:
     Max number of different atomic species (ntypx) = 10
     Max number of k-points (npk) =  40000
     Max angular momentum in pseudopotentials (lmaxx) =  3
     file Pt.pbe-n-kjpaw_psl.1.0.0.UPF: wavefunction(s)  6S 5D renormalized
     file C.pbe-n-kjpaw_psl.1.0.0.UPF: wavefunction(s)  2S 2P renormalized
     file H.pbe-kjpaw_psl.1.0.0.UPF: wavefunction(s)  1S renormalized

     IMPORTANT: XC functional enforced from input :
     Exchange-correlation= BEEF-VDW
                           (   1   4  43  14   2   0   0)
     Any further DFT definition will be discarded
     Please, verify this is what you really want

     Subspace diagonalization in iterative solution of the eigenvalue problem:
     a serial algorithm will be used

     bravais-lattice index     =            0
     lattice parameter (alat)  =      16.0349  a.u.
     unit-cell volume          =   12103.5045 (a.u.)^3
     number of atoms/cell      =           43
     number of atomic types    =            3
     number of electrons       =       376.00
     number of Kohn-Sham states=          226
     kinetic-energy cutoff     =      60.0000  Ry
     charge density cutoff     =     240.0000  Ry
     scf convergence threshold =      1.0E-06
     mixing beta               =       0.7000
     number of iterations used =            8  local-TF  mixing
     Exchange-correlation= BEEF-VDW
                           (   1   4  43  14   2   0   0)

     celldm(1)=  16.034858  celldm(2)=   0.000000  celldm(3)=   0.000000
     celldm(4)=   0.000000  celldm(5)=   0.000000  celldm(6)=   0.000000

     crystal axes: (cart. coord. in units of alat)
               a(1) = (   1.000000   0.000000   0.000000 )
               a(2) = (   0.500000   0.866025   0.000000 )
               a(3) = (   0.000000   0.000000   3.389887 )

     reciprocal axes: (cart. coord. in units 2 pi/alat)
               b(1) = (  1.000000 -0.577350  0.000000 )
               b(2) = (  0.000000  1.154701  0.000000 )
               b(3) = (  0.000000  0.000000  0.294995 )

     PseudoPot. # 1 for Pt read from file:
     /users/bkreitz1/quantum-espresso/potentials/Pt.pbe-n-kjpaw_psl.1.0.0.UPF
     MD5 check sum: 04dc8a03c51ece93fc7b5889c2958091
     Pseudo is Projector augmented-wave + core cor, Zval = 10.0
     Generated using 'atomic' code by A. Dal Corso  v.6.7MaX
     Shape of augmentation charge: PSQ
     Using radial grid of 1277 points,  6 beta functions with:
                l(1) =   0
                l(2) =   0
                l(3) =   1
                l(4) =   1
                l(5) =   2
                l(6) =   2
     Q(r) pseudized with 0 coefficients

     PseudoPot. # 2 for C  read from file:
     /users/bkreitz1/quantum-espresso/potentials/C.pbe-n-kjpaw_psl.1.0.0.UPF
     MD5 check sum: a169b0ebad56f5ec0d79c4633f80bf22
     Pseudo is Projector augmented-wave + core cor, Zval =  4.0
     Generated using 'atomic' code by A. Dal Corso  v.6.7MaX
     Shape of augmentation charge: PSQ
     Using radial grid of 1073 points,  4 beta functions with:
                l(1) =   0
                l(2) =   0
                l(3) =   1
                l(4) =   1
     Q(r) pseudized with 0 coefficients

     PseudoPot. # 3 for H  read from file:
     /users/bkreitz1/quantum-espresso/potentials/H.pbe-kjpaw_psl.1.0.0.UPF
     MD5 check sum: ae98473e6dc62675f0d0baffdab24f65
     Pseudo is Projector augmented-wave, Zval =  1.0
     Generated using 'atomic' code by A. Dal Corso  v.6.7MaX
     Shape of augmentation charge: PSQ
     Using radial grid of  929 points,  2 beta functions with:
                l(1) =   0
                l(2) =   0
     Q(r) pseudized with 0 coefficients

     atomic species   valence    mass     pseudopotential
        Pt            10.00   195.08400     Pt( 1.00)
        C              4.00    12.01100     C ( 1.00)
        H              1.00     1.00800     H ( 1.00)

     No symmetry found

   Cartesian axes

     site n.     atom                  positions (alat units)
         1           Pt  tau(   1) = (   0.0000000   0.0000000   1.0017346  )
         2           Pt  tau(   2) = (   0.3333333   0.0000000   1.0017346  )
         3           Pt  tau(   3) = (   0.6666667   0.0000000   1.0017346  )
         4           Pt  tau(   4) = (   0.1666667   0.2886751   1.0017346  )
         5           Pt  tau(   5) = (   0.5000000   0.2886751   1.0017346  )
         6           Pt  tau(   6) = (   0.8333333   0.2886751   1.0017346  )
         7           Pt  tau(   7) = (   0.3333333   0.5773503   1.0017346  )
         8           Pt  tau(   8) = (   0.6666667   0.5773503   1.0017346  )
         9           Pt  tau(   9) = (   1.0000000   0.5773503   1.0017346  )
        10           Pt  tau(  10) = (   0.1666667   0.0962250   1.2739001  )
        11           Pt  tau(  11) = (   0.5000000   0.0962250   1.2739001  )
        12           Pt  tau(  12) = (   0.8333333   0.0962250   1.2739001  )
        13           Pt  tau(  13) = (   0.3333333   0.3849002   1.2739001  )
        14           Pt  tau(  14) = (   0.6666667   0.3849002   1.2739001  )
        15           Pt  tau(  15) = (   1.0000000   0.3849002   1.2739001  )
        16           Pt  tau(  16) = (   0.5000000   0.6735753   1.2739001  )
        17           Pt  tau(  17) = (   0.8333333   0.6735753   1.2739001  )
        18           Pt  tau(  18) = (   1.1666667   0.6735753   1.2739001  )
        19           Pt  tau(  19) = (  -0.0011412   0.1930229   1.5433609  )
        20           Pt  tau(  20) = (   0.3324361   0.1928476   1.5425914  )
        21           Pt  tau(  21) = (   0.6661696   0.1929527   1.5429702  )
        22           Pt  tau(  22) = (   0.1659274   0.4813615   1.5425469  )
        23           Pt  tau(  23) = (   0.4990050   0.4813450   1.5421158  )
        24           Pt  tau(  24) = (   0.8326981   0.4812669   1.5424225  )
        25           Pt  tau(  25) = (   0.3326386   0.7702058   1.5426291  )
        26           Pt  tau(  26) = (   0.6657941   0.7704835   1.5422902  )
        27           Pt  tau(  27) = (   0.9991513   0.7702038   1.5423593  )
        28           Pt  tau(  28) = (  -0.0020267   0.0010071   1.8170631  )
        29           Pt  tau(  29) = (   0.3314060   0.0010566   1.8165213  )
        30           Pt  tau(  30) = (   0.6646640   0.0006650   1.8165117  )
        31           Pt  tau(  31) = (   0.1646250   0.2897133   1.8169320  )
        32           Pt  tau(  32) = (   0.4977319   0.2896417   1.8164005  )
        33           Pt  tau(  33) = (   0.8311749   0.2903440   1.8186653  )
        34           Pt  tau(  34) = (   0.3312566   0.5784383   1.8164969  )
        35           Pt  tau(  35) = (   0.6642074   0.5785828   1.8148290  )
        36           Pt  tau(  36) = (   0.9984657   0.5785451   1.8162065  )
        37           C   tau(  37) = (   0.7497725   0.3045535   2.2007791  )
        38           C   tau(  38) = (   0.7648421   0.4430786   2.2313660  )
        39           C   tau(  39) = (   0.7818565   0.6093105   2.2700124  )
        40           H   tau(  40) = (   0.7366181   0.1820814   2.1783754  )
        41           H   tau(  41) = (   0.9059368   0.6439042   2.2722019  )
        42           H   tau(  42) = (   0.7220516   0.6832127   2.1831015  )
        43           H   tau(  43) = (   0.7307324   0.6343902   2.3867146  )

     number of k points=    13  Marzari-Vanderbilt smearing, width (Ry)=  0.0200
                       cart. coord. in units 2pi/alat
        k(    1) = (   0.0000000   0.0000000   0.0000000), wk =   0.0800000
        k(    2) = (   0.0000000   0.2309401   0.0000000), wk =   0.1600000
        k(    3) = (   0.0000000   0.4618802   0.0000000), wk =   0.1600000
        k(    4) = (   0.2000000  -0.1154701   0.0000000), wk =   0.1600000
        k(    5) = (   0.2000000   0.1154701   0.0000000), wk =   0.1600000
        k(    6) = (   0.2000000   0.3464102   0.0000000), wk =   0.1600000
        k(    7) = (   0.2000000  -0.5773503   0.0000000), wk =   0.1600000
        k(    8) = (   0.2000000  -0.3464102   0.0000000), wk =   0.1600000
        k(    9) = (   0.4000000  -0.2309401   0.0000000), wk =   0.1600000
        k(   10) = (   0.4000000  -0.0000000   0.0000000), wk =   0.1600000
        k(   11) = (   0.4000000   0.2309401   0.0000000), wk =   0.1600000
        k(   12) = (   0.4000000  -0.6928203   0.0000000), wk =   0.1600000
        k(   13) = (   0.4000000  -0.4618802   0.0000000), wk =   0.1600000

     Check: negative core charge=   -0.000002

     Initial potential from superposition of free atoms

     starting charge  375.99373, renormalised to  376.00000

     negative rho (up, down):  1.120E-02 0.000E+00

     %%%%%%%%%%%%%%%%%%%%%%%%%%%%%%%%%%%%%%%%%%%%%%%%%%%%%%%%%%%%%%%%%%%%%%%%
     %                                                                      %
     % You are using vdW-DF, which was implemented by the Thonhauser group. %
     % Please cite the following two papers that made this development      %
     % possible and the two reviews that describe the various versions:     %
     %                                                                      %
     %   T. Thonhauser et al., PRL 115, 136402 (2015).                      %
     %   T. Thonhauser et al., PRB 76, 125112 (2007).                       %
     %   K. Berland et al., Rep. Prog. Phys. 78, 066501 (2015).             %
     %   D.C. Langreth et al., J. Phys.: Condens. Matter 21, 084203 (2009). %
     %                                                                      %
     %                                                                      %
     % If you are calculating the stress with vdW-DF, please also cite:     %
     %                                                                      %
     %   R. Sabatini et al., J. Phys.: Condens. Matter 24, 424209 (2012).   %
     %                                                                      %
     %%%%%%%%%%%%%%%%%%%%%%%%%%%%%%%%%%%%%%%%%%%%%%%%%%%%%%%%%%%%%%%%%%%%%%%%

     Starting wfcs are  340 randomized atomic wfcs
     Checking if some PAW data can be deallocated...

     Self-consistent Calculation

     iteration #  1     ecut=    60.00 Ry     beta= 0.70
     Davidson diagonalization with overlap
     ethr =  1.00E-02,  avg # of iterations =  2.5

     Threshold (ethr) on eigenvalues was too large:
     Diagonalizing with lowered threshold

     Davidson diagonalization with overlap
     ethr =  6.22E-04,  avg # of iterations =  4.1

[...]

     total energy              =  -27815.90059708 Ry
     estimated scf accuracy    <       2.57272239 Ry

[...]

     iteration #  4     ecut=    60.00 Ry     beta= 0.70
     Davidson diagonalization with overlap
     c_bands:  1 eigenvalues not converged
     ethr =  9.24E-05,  avg # of iterations = 13.3

[...]

     iteration # 20     ecut=    60.00 Ry     beta= 0.70
     Davidson diagonalization with overlap
     c_bands:  1 eigenvalues not converged
     ethr =  1.64E-09,  avg # of iterations =  3.4

[...]

     total energy              =  -27816.03009805 Ry
     estimated scf accuracy    <       0.00000105 Ry

     iteration # 23     ecut=    60.00 Ry     beta= 0.70
     Davidson diagonalization with overlap
     ethr =  2.80E-10,  avg # of iterations =  1.2

[...]

     End of self-consistent calculation

          k = 0.0000 0.0000 0.0000 ( 95019 PWs)   bands (ev):

   -13.0030 -11.0010  -7.3872  -6.6558  -6.0752  -5.0016  -4.9706  -4.9669
    -4.9644  -4.9629  -4.9606  -4.9595  -4.9528  -4.6903  -4.4082  -4.4075
    -4.4067  -4.4056  -4.4043  -4.4041  -4.1005  -4.0731  -3.9338  -3.9332
    -3.9318  -3.9299  -3.9290  -3.9276  -3.7176  -3.7158  -3.7152  -3.7142
    -3.7138  -3.7126  -3.4905  -3.4889  -3.4825  -3.4819  -3.4716  -3.4699
    -3.4691  -3.4681  -3.4660  -3.4632  -3.4532  -3.4489  -2.8718  -2.8715
    -2.8398  -2.8369  -2.7857  -2.7843  -2.7827  -2.7811  -2.7801  -2.7788
    -2.6452  -2.6439  -2.5445  -2.5411  -2.0415  -2.0374  -2.0372  -2.0348
    -2.0332  -2.0295  -1.9704  -1.8803  -1.8801  -1.8506  -1.8489  -1.8357
    -1.8341  -1.8238  -1.8183  -1.8165  -1.8156  -1.8146  -1.8132  -1.8103
    -1.7774  -1.7772  -1.6287  -1.6262  -1.6231  -1.6224  -1.6164  -1.6129
    -1.4764  -1.4677  -1.4652  -1.4609  -1.4599  -1.4566  -1.3685  -1.3674
    -1.2708  -1.2688  -1.2080  -1.2067  -1.2040  -1.1995  -1.1612  -1.1606
    -1.1503  -1.1500  -1.0289  -1.0019  -1.0004  -0.9980  -0.9947  -0.9915
    -0.9845  -0.5025  -0.5014  -0.4987  -0.4978  -0.4976  -0.4949  -0.4844
    -0.4342  -0.4283  -0.4254  -0.4249  -0.4213  -0.3561  -0.3505  -0.2959
    -0.2248  -0.1845  -0.1823  -0.1810  -0.1752  -0.0631  -0.0539  -0.0437
    -0.0378  -0.0249  -0.0241  -0.0217   0.0320   0.2298   0.2307   0.2312
     0.2328   0.2340   0.2368   0.3083   0.3160   0.4893   0.4899   0.4937
     0.4968   0.4993   0.5148   0.6617   0.6644   0.6652   0.6665   0.6678
     0.6714   0.7054   0.7069   0.7075   0.7104   0.7205   0.7598   0.8397
     0.8425   0.8598   0.8599   0.8614   0.8634   0.8646   0.8653   0.9630
     0.9670   0.9689   0.9701   0.9720   0.9739   0.9744   0.9766   1.0673
     1.0697   1.0736   1.0744   1.0752   1.0757   1.1695   1.1736   1.1813
     1.1827   1.1864   1.1873   1.3047   1.3930   1.4081   1.5034   1.5063
     1.5090   1.5108   1.5117   1.5138   2.3389   2.3864   2.3899   2.3916
     2.4027   2.4072   2.4895   4.6985   4.7064   4.7110   4.7297   4.7403
     4.7739   5.5625   6.2488   6.2603   6.2649   6.3071   6.3163   6.3233
     6.3254   6.5258

[...]

          k = 0.4000-0.4619 0.0000 ( 95006 PWs)   bands (ev):

   -13.0029 -11.0014  -6.6547  -6.4210  -6.4152  -5.8100  -5.1614  -5.1579
    -4.6971  -4.6499  -4.6399  -4.5118  -4.4777  -4.3678  -4.3668  -4.2619
    -4.2610  -4.1622  -4.1371  -4.1324  -4.1139  -4.0957  -4.0929  -4.0828
    -4.0529  -4.0251  -3.9408  -3.9270  -3.9258  -3.8838  -3.8832  -3.7825
    -3.6902  -3.6697  -3.6023  -3.5121  -3.5112  -3.4942  -3.4929  -3.4741
    -3.3646  -3.3629  -3.2698  -3.2658  -3.0983  -3.0848  -3.0290  -2.9274
    -2.9258  -2.8767  -2.8750  -2.7709  -2.7186  -2.6696  -2.6683  -2.6453
    -2.5971  -2.5970  -2.5717  -2.4668  -2.4641  -2.4350  -2.4337  -2.4279
    -2.4263  -2.4243  -2.3553  -2.3489  -2.2214  -2.1982  -2.1499  -2.1462
    -2.0322  -1.9967  -1.9923  -1.9851  -1.9436  -1.9084  -1.9073  -1.8176
    -1.7884  -1.7847  -1.7818  -1.7526  -1.7205  -1.6700  -1.6628  -1.6308
    -1.5648  -1.5621  -1.5518  -1.5490  -1.4442  -1.3916  -1.3866  -1.3430
    -1.3409  -1.3051  -1.3038  -1.2900  -1.2856  -1.2592  -1.2565  -1.2093
    -1.2081  -1.1625  -1.1574  -1.1561  -1.1514  -1.1482  -1.1393  -1.0991
    -1.0409  -1.0380  -1.0356  -0.8290  -0.8253  -0.7235  -0.7194  -0.6173
    -0.6051  -0.6033  -0.5808  -0.5485  -0.5140  -0.5117  -0.4948  -0.4859
    -0.4215  -0.3761  -0.3719  -0.3526  -0.3043  -0.2889  -0.2432  -0.2229
    -0.1854  -0.0982  -0.0661  -0.0104   0.0421   0.0554   0.0677   0.0696
     0.1572   0.1626   0.1698   0.1846   0.2047   0.2376   0.2469   0.2574
     0.3619   0.3676   0.3847   0.4282   0.4315   0.4550   0.4619   0.4728
     0.4994   0.6408   0.6846   0.7217   0.7967   0.8079   0.8792   0.8820
     0.9668   1.0095   1.0131   1.0175   1.1178   1.1252   1.1926   1.2194
     1.2334   1.2382   1.2423   1.2901   1.2977   1.3265   1.4012   1.4021
     1.4199   1.4518   1.4536   1.4599   1.4801   1.5189   1.6589   1.6681
     1.6690   1.6711   1.6725   1.7427   1.8203   1.8573   1.9966   2.8165
     2.8171   3.0427   3.0666   3.1091   3.2176   3.2207   3.2271   3.6789
     3.8279   3.8295   4.2867   4.3049   4.3150   4.4309   4.4334   4.6623
     4.7346   4.7934   4.8659   5.1684   5.2521   5.2662   5.7694   5.8913
     5.9052   6.1123

     the Fermi energy is     1.4331 ev

!    total energy              =  -27816.03009787 Ry

     total all-electron energy =  -1326876.087793 Ry
     estimated scf accuracy    <       0.00000021 Ry
     smearing contrib. (-TS)   =       0.00268223 Ry
     internal energy E=F+TS    =  -27816.03278010 Ry

     The total energy is F=E-TS. E is the sum of the following terms:
     one-electron contribution =  -30355.58371599 Ry
     hartree contribution      =   15476.27690404 Ry
     xc contribution           =    -907.26326513 Ry
     ewald contribution        =   13464.13753547 Ry
     one-center paw contrib.   =  -25493.60023849 Ry

     convergence has been achieved in  23 iterations

[...]

     Forces acting on atoms (cartesian axes, Ry/au):

     atom    1 type  1   force =     0.00035372    0.00003773   -0.00317913
     atom    2 type  1   force =    -0.00004218   -0.00000800   -0.00388058
     atom    3 type  1   force =     0.00001446   -0.00004054   -0.00312007
     atom    4 type  1   force =     0.00011937   -0.00033685   -0.00306195
     atom    5 type  1   force =     0.00016526   -0.00018406   -0.00313360
     atom    6 type  1   force =     0.00009102   -0.00005349   -0.00325526
     atom    7 type  1   force =     0.00010235   -0.00001432   -0.00318199
     atom    8 type  1   force =     0.00025905    0.00002116   -0.00307816
     atom    9 type  1   force =     0.00001982    0.00005104   -0.00314411
     atom   10 type  1   force =    -0.00057672    0.00035223    0.00427823
     atom   11 type  1   force =    -0.00016857    0.00021192    0.00350696
     atom   12 type  1   force =    -0.00022931    0.00037531    0.00373008
     atom   13 type  1   force =    -0.00045534    0.00018118    0.00262151
     atom   14 type  1   force =    -0.00004913   -0.00011464    0.00270067
     atom   15 type  1   force =    -0.00034610   -0.00010210    0.00318448
     atom   16 type  1   force =    -0.00044304    0.00016027    0.00246079
     atom   17 type  1   force =    -0.00026400    0.00014145    0.00253992
     atom   18 type  1   force =    -0.00012784    0.00003068    0.00282302
     atom   19 type  1   force =     0.00002622    0.00000375   -0.00001484
     atom   20 type  1   force =     0.00000175   -0.00007291    0.00007059
     atom   21 type  1   force =    -0.00021849    0.00010010    0.00014674
     atom   22 type  1   force =    -0.00005759    0.00017907    0.00025998
     atom   23 type  1   force =     0.00009064    0.00009700    0.00039221
     atom   24 type  1   force =    -0.00022291    0.00008912    0.00021112
     atom   25 type  1   force =    -0.00011304    0.00001249    0.00021869
     atom   26 type  1   force =    -0.00000383    0.00007067    0.00020291
     atom   27 type  1   force =    -0.00005126    0.00018534    0.00023143
     atom   28 type  1   force =    -0.00007039    0.00001054    0.00030701
     atom   29 type  1   force =     0.00002744   -0.00017188    0.00067137
     atom   30 type  1   force =     0.00012743    0.00012860    0.00027427
     atom   31 type  1   force =     0.00035602    0.00003921    0.00043003
     atom   32 type  1   force =    -0.00013874    0.00015763    0.00002142
     atom   33 type  1   force =    -0.00003352   -0.00007213   -0.00007238
     atom   34 type  1   force =     0.00014660   -0.00011138    0.00065094
     atom   35 type  1   force =     0.00024342    0.00004609   -0.00001305
     atom   36 type  1   force =    -0.00023702    0.00014126    0.00005651
     atom   37 type  2   force =     0.00155497   -0.00023950   -0.00250917
     atom   38 type  2   force =     0.00038988   -0.00048276    0.00127422
     atom   39 type  2   force =    -0.00357336    0.00091855    0.00695789
     atom   40 type  3   force =    -0.00037337    0.00023431    0.00080089
     atom   41 type  3   force =     0.00011029   -0.00049017    0.00009507
     atom   42 type  3   force =    -0.00083273    0.00041115    0.00051584
     atom   43 type  3   force =     0.00442874   -0.00189314   -0.00999050

     Total force =     0.014155     Total SCF correction =     0.001316

[...]

     negative rho (up, down):  1.252E-02 0.000E+00

     negative rho (up, down):  1.252E-02 0.000E+00
 BEEFens 2000 ensemble energies
             -0.607488123702065E+02
             -0.360466373175990E+01
             -0.158274625047841E+02
              0.429925123199875E+02
             -0.221527131859413E+02
             -0.205357991820304E+02
             -0.353108405688133E+02
             -0.865999276923161E+02
             -0.465150103471541E+02
             -0.472889438189140E+02
             -0.369675970124881E+02
              0.231671436822026E+01
              0.405940780282322E+01
              0.759433431769025E+01
              0.265269624313564E+01
              0.475475316666898E+02
             -0.208884827342616E+02
             -0.229843017078389E+02
              0.193165463054279E+02
             -0.112512880440414E+03
              0.536970464234689E+02
             -0.289908432749953E+02
             -0.334659594702663E+01
             -0.114264887941694E+02
             -0.879876286323577E+01
             -0.460800143822181E+01
              0.883699633103037E+02
             -0.187846127492136E+02
             -0.898896967590906E+01
             -0.518977253389501E+02
              0.815754180121808E+02
             -0.186827049475642E+02
             -0.375240364582570E+02
              0.249157359938730E+02
             -0.285290889800893E+01
              0.164570592420108E+02
             -0.485202058393082E+01
              0.108000867259960E+02
              0.289102823730974E+02
             -0.103344812539325E+03
              0.559149154071791E+02
              0.142601626768135E+02
             -0.177366815692528E+01
             -0.361496484017762E+02
              0.123371378869273E+02
             -0.147380810992762E+02
              0.398946717573219E+02
              0.365173942640416E+02
             -0.308066450203004E+02
             -0.275228087573358E+02
             -0.328691925195532E+02
             -0.352718845306549E+02
              0.137005900018472E+02
             -0.491258599293168E+02
              0.115912950443678E+02
              0.623843274582390E+02
              0.636425500588779E+02
              0.356362012360538E+02
              0.154130100969148E+02
              0.271152932197123E+02
[...]
             -0.707070710933225E+02
             -0.836662605115407E+00
             -0.248290737758397E+01
             -0.883372451430967E+01
             -0.181954036686312E+01
             -0.653496958876402E+02
             -0.210291126603064E+02
              0.542468071786049E+01
              0.904386755934033E+01
              0.469480422492383E+02
             -0.398187659383423E+02
              0.657441663215984E+02
             -0.425598429317339E+02
              0.210961060105092E+02
              0.350743971014082E+02

 BEEF-vdW xc energy contributions
           1 :   -783.257402755619
           2 :    719.204732942040
           3 :   -608.519579376302
           4 :    478.508657852905
           5 :   -356.693109793833
           6 :    262.766730571980
           7 :   -204.237918418869
           8 :    176.490992318597
           9 :   -166.825405459734
          10 :    160.597839218515
          11 :   -146.989769387091
          12 :    122.223209557719
          13 :   -89.3890588853599
          14 :    55.5306511814825
          15 :   -27.6657891307999
          16 :    9.53861596786044
          17 :  -0.349263962240911
          18 :   -4.28987915310381
          19 :    9.87407749671445
          20 :   -20.3089770526673
          21 :    36.2284291107559
          22 :   -54.9901999069832
          23 :    72.1827158511103
          24 :   -83.8240947757942
          25 :    88.1714414080473
          26 :   -86.3476283386068
          27 :    81.6005235671862
          28 :   -77.6404815395014
          29 :    76.8789959007012
          30 :   -79.4018453677305
          31 :   -85.9642258021933
          32 :   -65.8096377837693

     Writing output data file ./pwscf.save/

     General routines

     Parallel routines

   This run was terminated on:   3:26: 6   4Jan2023

   JOB DONE.