     Program PWSCF v.6.7MaX starts on  4Jan2023 at 10:15: 8

     Reading input from chcch-bi-ensemble.in
Warning: card &CELL ignored
Warning: card / ignored

     Current dimensions of program PWSCF are:
     Max number of different atomic species (ntypx) = 10
     Max number of k-points (npk) =  40000
     Max angular momentum in pseudopotentials (lmaxx) =  3
     file Pt.pbe-n-kjpaw_psl.1.0.0.UPF: wavefunction(s)  6S 5D renormalized
     file C.pbe-n-kjpaw_psl.1.0.0.UPF: wavefunction(s)  2S 2P renormalized
     file H.pbe-kjpaw_psl.1.0.0.UPF: wavefunction(s)  1S renormalized

     IMPORTANT: XC functional enforced from input :
     Exchange-correlation= BEEF-VDW
                           (   1   4  43  14   2   0   0)
     Any further DFT definition will be discarded
     Please, verify this is what you really want

     Subspace diagonalization in iterative solution of the eigenvalue problem:
     a serial algorithm will be used

     bravais-lattice index     =            0
     lattice parameter (alat)  =      16.0349  a.u.
     unit-cell volume          =   11255.2354 (a.u.)^3
     number of atoms/cell      =           41
     number of atomic types    =            3
     number of electrons       =       374.00
     number of Kohn-Sham states=          224
     kinetic-energy cutoff     =      60.0000  Ry
     charge density cutoff     =     240.0000  Ry
     scf convergence threshold =      1.0E-06
     mixing beta               =       0.7000
     number of iterations used =            8  local-TF  mixing
     Exchange-correlation= BEEF-VDW
                           (   1   4  43  14   2   0   0)

     celldm(1)=  16.034858  celldm(2)=   0.000000  celldm(3)=   0.000000
     celldm(4)=   0.000000  celldm(5)=   0.000000  celldm(6)=   0.000000

     crystal axes: (cart. coord. in units of alat)
               a(1) = (   1.000000   0.000000   0.000000 )
               a(2) = (   0.500000   0.866025   0.000000 )
               a(3) = (   0.000000   0.000000   3.152308 )

     reciprocal axes: (cart. coord. in units 2 pi/alat)
               b(1) = (  1.000000 -0.577350  0.000000 )
               b(2) = (  0.000000  1.154701  0.000000 )
               b(3) = (  0.000000  0.000000  0.317228 )

     PseudoPot. # 1 for Pt read from file:
     /users/bkreitz1/quantum-espresso/potentials/Pt.pbe-n-kjpaw_psl.1.0.0.UPF
     MD5 check sum: 04dc8a03c51ece93fc7b5889c2958091
     Pseudo is Projector augmented-wave + core cor, Zval = 10.0
     Generated using 'atomic' code by A. Dal Corso  v.6.7MaX
     Shape of augmentation charge: PSQ
     Using radial grid of 1277 points,  6 beta functions with:
                l(1) =   0
                l(2) =   0
                l(3) =   1
                l(4) =   1
                l(5) =   2
                l(6) =   2
     Q(r) pseudized with 0 coefficients

     PseudoPot. # 2 for C  read from file:
     /users/bkreitz1/quantum-espresso/potentials/C.pbe-n-kjpaw_psl.1.0.0.UPF
     MD5 check sum: a169b0ebad56f5ec0d79c4633f80bf22
     Pseudo is Projector augmented-wave + core cor, Zval =  4.0
     Generated using 'atomic' code by A. Dal Corso  v.6.7MaX
     Shape of augmentation charge: PSQ
     Using radial grid of 1073 points,  4 beta functions with:
                l(1) =   0
                l(2) =   0
                l(3) =   1
                l(4) =   1
     Q(r) pseudized with 0 coefficients

     PseudoPot. # 3 for H  read from file:
     /users/bkreitz1/quantum-espresso/potentials/H.pbe-kjpaw_psl.1.0.0.UPF
     MD5 check sum: ae98473e6dc62675f0d0baffdab24f65
     Pseudo is Projector augmented-wave, Zval =  1.0
     Generated using 'atomic' code by A. Dal Corso  v.6.7MaX
     Shape of augmentation charge: PSQ
     Using radial grid of  929 points,  2 beta functions with:
                l(1) =   0
                l(2) =   0
     Q(r) pseudized with 0 coefficients

     atomic species   valence    mass     pseudopotential
        Pt            10.00   195.08400     Pt( 1.00)
        C              4.00    12.01100     C ( 1.00)
        H              1.00     1.00800     H ( 1.00)

     No symmetry found

   Cartesian axes

     site n.     atom                  positions (alat units)
         1           Pt  tau(   1) = (   0.0000000   0.0000000   1.0017346  )
         2           Pt  tau(   2) = (   0.3333333   0.0000000   1.0017346  )
         3           Pt  tau(   3) = (   0.6666667   0.0000000   1.0017346  )
         4           Pt  tau(   4) = (   0.1666667   0.2886751   1.0017346  )
         5           Pt  tau(   5) = (   0.5000000   0.2886751   1.0017346  )
         6           Pt  tau(   6) = (   0.8333333   0.2886751   1.0017346  )
         7           Pt  tau(   7) = (   0.3333333   0.5773503   1.0017346  )
         8           Pt  tau(   8) = (   0.6666667   0.5773503   1.0017346  )
         9           Pt  tau(   9) = (   1.0000000   0.5773503   1.0017346  )
        10           Pt  tau(  10) = (   0.1666667   0.0962250   1.2739001  )
        11           Pt  tau(  11) = (   0.5000000   0.0962250   1.2739001  )
        12           Pt  tau(  12) = (   0.8333333   0.0962250   1.2739001  )
        13           Pt  tau(  13) = (   0.3333333   0.3849002   1.2739001  )
        14           Pt  tau(  14) = (   0.6666667   0.3849002   1.2739001  )
        15           Pt  tau(  15) = (   1.0000000   0.3849002   1.2739001  )
        16           Pt  tau(  16) = (   0.5000000   0.6735753   1.2739001  )
        17           Pt  tau(  17) = (   0.8333333   0.6735753   1.2739001  )
        18           Pt  tau(  18) = (   1.1666667   0.6735753   1.2739001  )
        19           Pt  tau(  19) = (   0.0005139   0.1916257   1.5395363  )
        20           Pt  tau(  20) = (   0.3354175   0.1931636   1.5465220  )
        21           Pt  tau(  21) = (   0.6638930   0.1932030   1.5471624  )
        22           Pt  tau(  22) = (   0.1666828   0.4800143   1.5408545  )
        23           Pt  tau(  23) = (   0.5023729   0.4796990   1.5496343  )
        24           Pt  tau(  24) = (   0.8309573   0.4813315   1.5475677  )
        25           Pt  tau(  25) = (   0.3335607   0.7692467   1.5401510  )
        26           Pt  tau(  26) = (   0.6666581   0.7668344   1.5451605  )
        27           Pt  tau(  27) = (   1.0000827   0.7686750   1.5423288  )
        28           Pt  tau(  28) = (  -0.0005122  -0.0005993   1.8155381  )
        29           Pt  tau(  29) = (   0.3335645  -0.0029958   1.8158023  )
        30           Pt  tau(  30) = (   0.6688604  -0.0054329   1.8156726  )
        31           Pt  tau(  31) = (   0.1645198   0.2856264   1.8173583  )
        32           Pt  tau(  32) = (   0.4944225   0.2777919   1.8382854  )
        33           Pt  tau(  33) = (   0.8386958   0.2830792   1.8135647  )
        34           Pt  tau(  34) = (   0.3307269   0.5763519   1.8115434  )
        35           Pt  tau(  35) = (   0.6746842   0.5803798   1.8380461  )
        36           Pt  tau(  36) = (   1.0038072   0.5743852   1.8172060  )
        37           C   tau(  37) = (   0.5285867   0.2867587   2.0704730  )
        38           C   tau(  38) = (   0.5815896   0.4301898   2.0985208  )
        39           C   tau(  39) = (   0.6358585   0.5732468   2.0689009  )
        40           H   tau(  40) = (   0.5170606   0.1861612   2.1477976  )
        41           H   tau(  41) = (   0.6476655   0.6738808   2.1474408  )

     number of k points=    13  Marzari-Vanderbilt smearing, width (Ry)=  0.0200
                       cart. coord. in units 2pi/alat
        k(    1) = (   0.0000000   0.0000000   0.0000000), wk =   0.0800000
        k(    2) = (   0.0000000   0.2309401   0.0000000), wk =   0.1600000
        k(    3) = (   0.0000000   0.4618802   0.0000000), wk =   0.1600000
        k(    4) = (   0.2000000  -0.1154701   0.0000000), wk =   0.1600000
        k(    5) = (   0.2000000   0.1154701   0.0000000), wk =   0.1600000
        k(    6) = (   0.2000000   0.3464102   0.0000000), wk =   0.1600000
        k(    7) = (   0.2000000  -0.5773503   0.0000000), wk =   0.1600000
        k(    8) = (   0.2000000  -0.3464102   0.0000000), wk =   0.1600000
        k(    9) = (   0.4000000  -0.2309401   0.0000000), wk =   0.1600000
        k(   10) = (   0.4000000  -0.0000000   0.0000000), wk =   0.1600000
        k(   11) = (   0.4000000   0.2309401   0.0000000), wk =   0.1600000
        k(   12) = (   0.4000000  -0.6928203   0.0000000), wk =   0.1600000
        k(   13) = (   0.4000000  -0.4618802   0.0000000), wk =   0.1600000

     Check: negative core charge=   -0.000002

     Initial potential from superposition of free atoms

     starting charge  373.99375, renormalised to  374.00000

     negative rho (up, down):  1.149E-02 0.000E+00

     %%%%%%%%%%%%%%%%%%%%%%%%%%%%%%%%%%%%%%%%%%%%%%%%%%%%%%%%%%%%%%%%%%%%%%%%
     %                                                                      %
     % You are using vdW-DF, which was implemented by the Thonhauser group. %
     % Please cite the following two papers that made this development      %
     % possible and the two reviews that describe the various versions:     %
     %                                                                      %
     %   T. Thonhauser et al., PRL 115, 136402 (2015).                      %
     %   T. Thonhauser et al., PRB 76, 125112 (2007).                       %
     %   K. Berland et al., Rep. Prog. Phys. 78, 066501 (2015).             %
     %   D.C. Langreth et al., J. Phys.: Condens. Matter 21, 084203 (2009). %
     %                                                                      %
     %                                                                      %
     % If you are calculating the stress with vdW-DF, please also cite:     %
     %                                                                      %
     %   R. Sabatini et al., J. Phys.: Condens. Matter 24, 424209 (2012).   %
     %                                                                      %
     %%%%%%%%%%%%%%%%%%%%%%%%%%%%%%%%%%%%%%%%%%%%%%%%%%%%%%%%%%%%%%%%%%%%%%%%

     Starting wfcs are  338 randomized atomic wfcs
     Checking if some PAW data can be deallocated...

     Self-consistent Calculation

     iteration #  1     ecut=    60.00 Ry     beta= 0.70
     Davidson diagonalization with overlap
     ethr =  1.00E-02,  avg # of iterations =  2.0

[...]

     total energy              =  -27812.67217140 Ry
     estimated scf accuracy    <       5.23443267 Ry

[...]

     iteration #  3     ecut=    60.00 Ry     beta= 0.70
     Davidson diagonalization with overlap
     c_bands:  1 eigenvalues not converged
     ethr =  2.79E-04,  avg # of iterations = 13.4

[...]

     iteration #  9     ecut=    60.00 Ry     beta= 0.70
     Davidson diagonalization with overlap
     c_bands:  1 eigenvalues not converged
     c_bands:  1 eigenvalues not converged
     c_bands:  1 eigenvalues not converged
     ethr =  1.53E-06,  avg # of iterations =  8.1

[...]

     total energy              =  -27813.54083283 Ry
     estimated scf accuracy    <       0.00000123 Ry

     iteration # 20     ecut=    60.00 Ry     beta= 0.70
     Davidson diagonalization with overlap
     ethr =  3.29E-10,  avg # of iterations =  4.6

[...]

     End of self-consistent calculation

          k = 0.0000 0.0000 0.0000 ( 88397 PWs)   bands (ev):

   -13.9814 -11.3274  -6.9090  -6.6230  -5.4262  -5.3121  -4.6232  -4.2913
    -4.2586  -4.2254  -4.2094  -4.2081  -4.1871  -4.1695  -4.0812  -3.8078
    -3.6663  -3.6561  -3.6497  -3.6408  -3.5874  -3.3980  -3.2449  -3.2164
    -3.2134  -3.1911  -3.1638  -3.1420  -3.0508  -2.9747  -2.9731  -2.9674
    -2.8904  -2.8887  -2.8408  -2.7834  -2.7753  -2.7632  -2.7420  -2.7376
    -2.7237  -2.7160  -2.7102  -2.6700  -2.6330  -2.6102  -2.5545  -2.1988
    -2.1243  -2.1187  -2.1041  -2.0900  -2.0800  -2.0635  -2.0457  -2.0188
    -1.9446  -1.8792  -1.8605  -1.8043  -1.6306  -1.4595  -1.3787  -1.3542
    -1.3231  -1.3097  -1.2491  -1.2345  -1.2230  -1.1592  -1.1235  -1.1210
    -1.1162  -1.1091  -1.1004  -1.0886  -1.0713  -1.0590  -1.0399  -1.0350
    -1.0117  -1.0003  -0.9931  -0.9314  -0.9157  -0.9079  -0.8940  -0.8596
    -0.7964  -0.7593  -0.7286  -0.7236  -0.7147  -0.7074  -0.6873  -0.6694
    -0.6658  -0.6453  -0.6159  -0.5816  -0.5711  -0.5646  -0.4653  -0.4585
    -0.4482  -0.4171  -0.4160  -0.3667  -0.3250  -0.2929  -0.2635  -0.2410
    -0.1790  -0.0730   0.0100   0.1161   0.1539   0.1716   0.1822   0.2074
     0.2235   0.2375   0.2517   0.2787   0.3150   0.3699   0.3936   0.4093
     0.4589   0.4887   0.5098   0.5265   0.5769   0.5923   0.6045   0.7021
     0.7148   0.7263   0.7368   0.7677   0.8653   0.8993   0.9394   0.9575
     0.9616   0.9836   1.0266   1.0459   1.1954   1.2033   1.2133   1.2243
     1.2251   1.2609   1.2781   1.3018   1.3680   1.3937   1.3952   1.4097
     1.4110   1.4299   1.4434   1.4460   1.4578   1.4707   1.4796   1.5010
     1.5244   1.5409   1.5518   1.5567   1.5819   1.6347   1.6394   1.6452
     1.6591   1.6773   1.7000   1.7163   1.7355   1.7863   1.7907   1.7964
     1.8130   1.8233   1.8359   1.8457   1.8790   1.9011   1.9062   1.9425
     1.9480   2.0843   2.1025   2.1627   2.2060   2.2292   2.2415   2.2495
     2.2616   2.3016   2.4179   2.4987   3.0129   3.0886   3.1134   3.1827
     3.2282   3.6982   4.0822   5.0299   5.3583   5.4046   5.4204   5.4575
     5.9342   6.1750   6.7335   6.8726   6.9475   7.0266   7.0429   7.0586

[...]

          k = 0.4000-0.4619 0.0000 ( 88328 PWs)   bands (ev):

   -13.9811 -11.3279  -6.8999  -5.6772  -5.6695  -5.3172  -5.0697  -4.7948
    -4.4484  -4.1884  -3.9658  -3.8284  -3.7569  -3.7387  -3.6715  -3.5958
    -3.5141  -3.4748  -3.4661  -3.4352  -3.4179  -3.3690  -3.3493  -3.3262
    -3.3117  -3.2861  -3.1711  -3.1543  -3.1238  -3.1137  -3.0691  -3.0357
    -2.9783  -2.9330  -2.9010  -2.8732  -2.7870  -2.7679  -2.7380  -2.7322
    -2.6882  -2.6359  -2.5900  -2.5316  -2.4344  -2.3220  -2.3103  -2.2301
    -2.2139  -2.1785  -2.1278  -2.1081  -2.0044  -1.9753  -1.9534  -1.9143
    -1.8964  -1.8636  -1.8418  -1.8226  -1.7589  -1.7378  -1.7186  -1.6961
    -1.6649  -1.6543  -1.6394  -1.6287  -1.5645  -1.4823  -1.4640  -1.4366
    -1.3687  -1.3476  -1.2993  -1.2685  -1.2557  -1.2231  -1.2042  -1.1814
    -1.1706  -1.1587  -1.1321  -1.0682  -1.0226  -1.0035  -0.9924  -0.9707
    -0.9193  -0.8640  -0.8470  -0.8348  -0.8100  -0.7343  -0.7034  -0.6734
    -0.6586  -0.6217  -0.6061  -0.6003  -0.5566  -0.5437  -0.5265  -0.5201
    -0.4902  -0.4771  -0.4441  -0.4335  -0.4166  -0.3959  -0.3785  -0.3668
    -0.3596  -0.3203  -0.3074  -0.2285  -0.1618  -0.0696  -0.0368   0.0035
     0.0268   0.0921   0.1060   0.1247   0.1526   0.1936   0.2197   0.2518
     0.2785   0.2858   0.3207   0.3422   0.3763   0.4266   0.4831   0.4887
     0.5294   0.6000   0.6430   0.6725   0.6992   0.7162   0.7542   0.8162
     0.8479   0.8843   0.9060   0.9223   0.9414   0.9667   0.9884   1.0464
     1.0863   1.1026   1.1310   1.1494   1.1666   1.2094   1.2726   1.2910
     1.3166   1.4138   1.4672   1.5165   1.5864   1.6048   1.6210   1.6870
     1.7064   1.7397   1.8000   1.8186   1.8938   1.9010   1.9399   1.9619
     1.9721   1.9864   2.0299   2.0759   2.0929   2.1163   2.1371   2.1560
     2.1627   2.1706   2.2459   2.2668   2.3391   2.3598   2.3688   2.3925
     2.4020   2.4508   2.4852   2.5821   2.6753   2.7517   3.2106   3.5394
     3.5575   3.6709   3.8049   3.9283   3.9566   3.9979   4.0803   4.5171
     4.5692   4.6221   5.0018   5.0170   5.0873   5.1816   5.2110   5.3185
     5.4423   5.4882   5.4952   5.8732   5.9897   6.0751   6.1802   6.5475

     the Fermi energy is     2.1794 ev

!    total energy              =  -27813.54083245 Ry

     total all-electron energy =  -1326873.598536 Ry
     estimated scf accuracy    <       0.00000099 Ry
     smearing contrib. (-TS)   =      -0.00013074 Ry
     internal energy E=F+TS    =  -27813.54070171 Ry

     The total energy is F=E-TS. E is the sum of the following terms:
     one-electron contribution =  -26607.79383832 Ry
     hartree contribution      =   13610.85547608 Ry
     xc contribution           =    -905.78589707 Ry
     ewald contribution        =   11582.83104947 Ry
     one-center paw contrib.   =  -25493.64749187 Ry

     convergence has been achieved in  20 iterations

[...]

     Forces acting on atoms (cartesian axes, Ry/au):

     atom    1 type  1   force =     0.00079222    0.00043278   -0.00840153
     atom    2 type  1   force =    -0.00178081    0.00112522   -0.00310732
     atom    3 type  1   force =     0.00064453    0.00032412   -0.00280224
     atom    4 type  1   force =     0.00051767   -0.00109187   -0.00807763
     atom    5 type  1   force =    -0.00093866    0.00001946   -0.00314900
     atom    6 type  1   force =     0.00137887   -0.00073643   -0.00310452
     atom    7 type  1   force =     0.00018174   -0.00001487   -0.00324119
     atom    8 type  1   force =    -0.00063961    0.00086714   -0.00320788
     atom    9 type  1   force =     0.00029543   -0.00060196   -0.00229457
     atom   10 type  1   force =     0.00127637   -0.00004653   -0.00044866
     atom   11 type  1   force =     0.00031405    0.00180437    0.00824304
     atom   12 type  1   force =    -0.00123817    0.00084063   -0.00022820
     atom   13 type  1   force =     0.00228754   -0.00125148    0.00543405
     atom   14 type  1   force =    -0.00115573    0.00076007    0.01325940
     atom   15 type  1   force =    -0.00129049    0.00049840    0.00033043
     atom   16 type  1   force =     0.00219087   -0.00129162    0.00354740
     atom   17 type  1   force =    -0.00128312   -0.00153312    0.00811949
     atom   18 type  1   force =    -0.00095047    0.00002099   -0.00084868
     atom   19 type  1   force =    -0.00007735    0.00017801   -0.00030789
     atom   20 type  1   force =     0.00030220    0.00003594   -0.00001928
     atom   21 type  1   force =    -0.00017974   -0.00007987   -0.00003012
     atom   22 type  1   force =    -0.00000005   -0.00025770   -0.00035151
     atom   23 type  1   force =     0.00029607   -0.00018358    0.00036785
     atom   24 type  1   force =    -0.00028022    0.00014913   -0.00041970
     atom   25 type  1   force =     0.00027823    0.00016442   -0.00025637
     atom   26 type  1   force =     0.00018065   -0.00001974    0.00016550
     atom   27 type  1   force =    -0.00011526    0.00009358   -0.00028099
     atom   28 type  1   force =     0.00031161    0.00008069   -0.00005523
     atom   29 type  1   force =    -0.00025335    0.00029152   -0.00006613
     atom   30 type  1   force =    -0.00014271    0.00013582   -0.00002185
     atom   31 type  1   force =     0.00034408   -0.00001544    0.00004331
     atom   32 type  1   force =    -0.00023506   -0.00021313   -0.00108775
     atom   33 type  1   force =     0.00003185    0.00021973    0.00004392
     atom   34 type  1   force =     0.00001843   -0.00009745   -0.00013045
     atom   35 type  1   force =     0.00001817    0.00037357   -0.00081995
     atom   36 type  1   force =    -0.00011118    0.00014240    0.00013416
     atom   37 type  2   force =     0.00130017   -0.00056202    0.00179869
     atom   38 type  2   force =    -0.00033284   -0.00055674    0.00070808
     atom   39 type  2   force =    -0.00144445    0.00599262    0.00696177
     atom   40 type  3   force =     0.00023522    0.00013640   -0.00032019
     atom   41 type  3   force =    -0.00074670   -0.00613347   -0.00607826

     Total force =     0.013111     Total SCF correction =     0.003807
     SCF correction compared to forces is large: reduce conv_thr to get better values

[...]

     negative rho (up, down):  1.246E-02 0.000E+00

     negative rho (up, down):  1.246E-02 0.000E+00
 BEEFens 2000 ensemble energies
             -0.606417690824186E+02
             -0.361422632716759E+01
             -0.158266690683968E+02
              0.428960217938396E+02
             -0.220935740091592E+02
             -0.205144785394718E+02
             -0.351910382064383E+02
             -0.864228797560918E+02
             -0.464727133822271E+02
             -0.472162017041757E+02
             -0.369067551285059E+02
              0.228101497344446E+01
              0.408506370512129E+01
              0.761116992627896E+01
              0.265321040656423E+01
              0.474548428553642E+02
             -0.208534700297281E+02
             -0.230043128144840E+02
              0.192995708280498E+02
             -0.112295632711182E+03
              0.535876314282413E+02
             -0.289564925321317E+02
             -0.332896102292398E+01
             -0.113896762005239E+02
             -0.883562458073777E+01
             -0.462796311932516E+01
              0.882003835755858E+02
             -0.187018714759718E+02
             -0.899463837406654E+01
             -0.518135628430353E+02
              0.814822833809490E+02
             -0.187152034816646E+02
             -0.374639210934772E+02
              0.249038281764078E+02
             -0.283343245641640E+01
              0.164032263257827E+02
             -0.484337392867349E+01
              0.107969577984065E+02
              0.288297003057874E+02
             -0.103179657982020E+03
              0.557875918958829E+02
              0.142340378405012E+02
             -0.171655312615013E+01
             -0.361288033600336E+02
              0.123091816287871E+02
             -0.146567640904499E+02
              0.398041606885101E+02
              0.364509721416432E+02
             -0.307785311007069E+02
             -0.274951508960182E+02
             -0.328277229596426E+02
             -0.351895403205228E+02
              0.136356538141673E+02
             -0.490435654444072E+02
              0.115447954696001E+02
              0.622739618841817E+02
              0.634865245595026E+02
              0.355491007426382E+02
              0.153878033138585E+02
              0.270340017871276E+02
[...]
             -0.705580538037819E+02
             -0.897988324726271E+00
             -0.247742929718888E+01
             -0.881822488219120E+01
             -0.179581718191685E+01
             -0.652206951138213E+02
             -0.210440408161064E+02
              0.538764158973872E+01
              0.899324638426415E+01
              0.468414498284785E+02
             -0.397462764268142E+02
              0.656636142752291E+02
             -0.424863947461679E+02
              0.210198262457293E+02
              0.349969804829986E+02

 BEEF-vdW xc energy contributions
           1 :   -782.161830775945
           2 :    718.674833610340
           3 :   -608.619610507636
           4 :    478.873940994754
           5 :   -356.906112113684
           6 :    262.618981992123
           7 :   -203.767630359595
           8 :    175.880299202491
           9 :   -166.268455612969
          10 :    160.210809007093
          11 :   -146.778860264182
          12 :    122.109126135625
          13 :   -89.2721094672287
          14 :    55.3559745137317
          15 :   -27.4470877284708
          16 :    9.33213288366369
          17 :  -0.206471901922669
          18 :   -4.35821866173296
          19 :    9.90423242139843
          20 :   -20.3576704343897
          21 :    36.3321834802981
          22 :   -55.1380168410034
          23 :    72.3184423549999
          24 :   -83.8746074327162
          25 :    88.0890752159338
          26 :   -86.1433560501926
          27 :    81.3414096461220
          28 :   -77.4140558110316
          29 :    76.7512123410487
          30 :   -79.3908683554802
          31 :   -85.7816124813421
          32 :   -65.7726802761582

     Writing output data file ./pwscf.save/

     General routines

     Parallel routines

   This run was terminated on:  13:58:22   4Jan2023

   JOB DONE.