     Program PWSCF v.6.7MaX starts on  3Jan2023 at 22:46:57

     Reading input from chcch3-bi-ensemble.in
Warning: card &CELL ignored
Warning: card / ignored

     Current dimensions of program PWSCF are:
     Max number of different atomic species (ntypx) = 10
     Max number of k-points (npk) =  40000
     Max angular momentum in pseudopotentials (lmaxx) =  3
     file Pt.pbe-n-kjpaw_psl.1.0.0.UPF: wavefunction(s)  6S 5D renormalized
     file C.pbe-n-kjpaw_psl.1.0.0.UPF: wavefunction(s)  2S 2P renormalized
     file H.pbe-kjpaw_psl.1.0.0.UPF: wavefunction(s)  1S renormalized

     IMPORTANT: XC functional enforced from input :
     Exchange-correlation= BEEF-VDW
                           (   1   4  43  14   2   0   0)
     Any further DFT definition will be discarded
     Please, verify this is what you really want

     Subspace diagonalization in iterative solution of the eigenvalue problem:
     a serial algorithm will be used

     bravais-lattice index     =            0
     lattice parameter (alat)  =      16.0349  a.u.
     unit-cell volume          =   11866.1692 (a.u.)^3
     number of atoms/cell      =           43
     number of atomic types    =            3
     number of electrons       =       376.00
     number of Kohn-Sham states=          226
     kinetic-energy cutoff     =      60.0000  Ry
     charge density cutoff     =     240.0000  Ry
     scf convergence threshold =      1.0E-06
     mixing beta               =       0.7000
     number of iterations used =            8  local-TF  mixing
     Exchange-correlation= BEEF-VDW
                           (   1   4  43  14   2   0   0)

     celldm(1)=  16.034858  celldm(2)=   0.000000  celldm(3)=   0.000000
     celldm(4)=   0.000000  celldm(5)=   0.000000  celldm(6)=   0.000000

     crystal axes: (cart. coord. in units of alat)
               a(1) = (   1.000000   0.000000   0.000000 )
               a(2) = (   0.500000   0.866025   0.000000 )
               a(3) = (   0.000000   0.000000   3.323415 )

     reciprocal axes: (cart. coord. in units 2 pi/alat)
               b(1) = (  1.000000 -0.577350  0.000000 )
               b(2) = (  0.000000  1.154701  0.000000 )
               b(3) = (  0.000000  0.000000  0.300895 )

     PseudoPot. # 1 for Pt read from file:
     /users/bkreitz1/quantum-espresso/potentials/Pt.pbe-n-kjpaw_psl.1.0.0.UPF
     MD5 check sum: 04dc8a03c51ece93fc7b5889c2958091
     Pseudo is Projector augmented-wave + core cor, Zval = 10.0
     Generated using 'atomic' code by A. Dal Corso  v.6.7MaX
     Shape of augmentation charge: PSQ
     Using radial grid of 1277 points,  6 beta functions with:
                l(1) =   0
                l(2) =   0
                l(3) =   1
                l(4) =   1
                l(5) =   2
                l(6) =   2
     Q(r) pseudized with 0 coefficients

     PseudoPot. # 2 for C  read from file:
     /users/bkreitz1/quantum-espresso/potentials/C.pbe-n-kjpaw_psl.1.0.0.UPF
     MD5 check sum: a169b0ebad56f5ec0d79c4633f80bf22
     Pseudo is Projector augmented-wave + core cor, Zval =  4.0
     Generated using 'atomic' code by A. Dal Corso  v.6.7MaX
     Shape of augmentation charge: PSQ
     Using radial grid of 1073 points,  4 beta functions with:
                l(1) =   0
                l(2) =   0
                l(3) =   1
                l(4) =   1
     Q(r) pseudized with 0 coefficients

     PseudoPot. # 3 for H  read from file:
     /users/bkreitz1/quantum-espresso/potentials/H.pbe-kjpaw_psl.1.0.0.UPF
     MD5 check sum: ae98473e6dc62675f0d0baffdab24f65
     Pseudo is Projector augmented-wave, Zval =  1.0
     Generated using 'atomic' code by A. Dal Corso  v.6.7MaX
     Shape of augmentation charge: PSQ
     Using radial grid of  929 points,  2 beta functions with:
                l(1) =   0
                l(2) =   0
     Q(r) pseudized with 0 coefficients

     atomic species   valence    mass     pseudopotential
        Pt            10.00   195.08400     Pt( 1.00)
        C              4.00    12.01100     C ( 1.00)
        H              1.00     1.00800     H ( 1.00)

     No symmetry found

   Cartesian axes

     site n.     atom                  positions (alat units)
         1           Pt  tau(   1) = (   0.0000000   0.0000000   1.0017346  )
         2           Pt  tau(   2) = (   0.3333333   0.0000000   1.0017346  )
         3           Pt  tau(   3) = (   0.6666667   0.0000000   1.0017346  )
         4           Pt  tau(   4) = (   0.1666667   0.2886751   1.0017346  )
         5           Pt  tau(   5) = (   0.5000000   0.2886751   1.0017346  )
         6           Pt  tau(   6) = (   0.8333333   0.2886751   1.0017346  )
         7           Pt  tau(   7) = (   0.3333333   0.5773503   1.0017346  )
         8           Pt  tau(   8) = (   0.6666667   0.5773503   1.0017346  )
         9           Pt  tau(   9) = (   1.0000000   0.5773503   1.0017346  )
        10           Pt  tau(  10) = (   0.1666667   0.0962250   1.2739001  )
        11           Pt  tau(  11) = (   0.5000000   0.0962250   1.2739001  )
        12           Pt  tau(  12) = (   0.8333333   0.0962250   1.2739001  )
        13           Pt  tau(  13) = (   0.3333333   0.3849002   1.2739001  )
        14           Pt  tau(  14) = (   0.6666667   0.3849002   1.2739001  )
        15           Pt  tau(  15) = (   1.0000000   0.3849002   1.2739001  )
        16           Pt  tau(  16) = (   0.5000000   0.6735753   1.2739001  )
        17           Pt  tau(  17) = (   0.8333333   0.6735753   1.2739001  )
        18           Pt  tau(  18) = (   1.1666667   0.6735753   1.2739001  )
        19           Pt  tau(  19) = (  -0.0007903   0.1923423   1.5524740  )
        20           Pt  tau(  20) = (   0.3379902   0.1915228   1.5447237  )
        21           Pt  tau(  21) = (   0.6702413   0.1911343   1.5457064  )
        22           Pt  tau(  22) = (   0.1707678   0.4780440   1.5410581  )
        23           Pt  tau(  23) = (   0.5040569   0.4786477   1.5444659  )
        24           Pt  tau(  24) = (   0.8360908   0.4777773   1.5455589  )
        25           Pt  tau(  25) = (   0.3374335   0.7674537   1.5418814  )
        26           Pt  tau(  26) = (   0.6696152   0.7651831   1.5455476  )
        27           Pt  tau(  27) = (   1.0030497   0.7679427   1.5409137  )
        28           Pt  tau(  28) = (   0.0100042  -0.0071653   1.8197446  )
        29           Pt  tau(  29) = (   0.3419777  -0.0049651   1.8166293  )
        30           Pt  tau(  30) = (   0.6762959  -0.0103145   1.8149170  )
        31           Pt  tau(  31) = (   0.1765810   0.2828352   1.8192268  )
        32           Pt  tau(  32) = (   0.5026454   0.2785220   1.8259442  )
        33           Pt  tau(  33) = (   0.8487390   0.2795540   1.8410133  )
        34           Pt  tau(  34) = (   0.3423719   0.5727437   1.8167007  )
        35           Pt  tau(  35) = (   0.6774405   0.5781548   1.8282208  )
        36           Pt  tau(  36) = (   1.0143488   0.5743761   1.8125013  )
        37           C   tau(  37) = (   0.6529667   0.2988013   2.0082217  )
        38           C   tau(  38) = (   0.7296993   0.4435413   2.0173220  )
        39           C   tau(  39) = (   0.8016965   0.5096246   2.1651219  )
        40           H   tau(  40) = (   0.6450276   0.2174940   2.1073387  )
        41           H   tau(  41) = (   0.9020194   0.5859154   2.1408300  )
        42           H   tau(  42) = (   0.7106583   0.5786782   2.2247693  )
        43           H   tau(  43) = (   0.8376764   0.4136761   2.2432482  )

     number of k points=    13  Marzari-Vanderbilt smearing, width (Ry)=  0.0200
                       cart. coord. in units 2pi/alat
        k(    1) = (   0.0000000   0.0000000   0.0000000), wk =   0.0800000
        k(    2) = (   0.0000000   0.2309401   0.0000000), wk =   0.1600000
        k(    3) = (   0.0000000   0.4618802   0.0000000), wk =   0.1600000
        k(    4) = (   0.2000000  -0.1154701   0.0000000), wk =   0.1600000
        k(    5) = (   0.2000000   0.1154701   0.0000000), wk =   0.1600000
        k(    6) = (   0.2000000   0.3464102   0.0000000), wk =   0.1600000
        k(    7) = (   0.2000000  -0.5773503   0.0000000), wk =   0.1600000
        k(    8) = (   0.2000000  -0.3464102   0.0000000), wk =   0.1600000
        k(    9) = (   0.4000000  -0.2309401   0.0000000), wk =   0.1600000
        k(   10) = (   0.4000000  -0.0000000   0.0000000), wk =   0.1600000
        k(   11) = (   0.4000000   0.2309401   0.0000000), wk =   0.1600000
        k(   12) = (   0.4000000  -0.6928203   0.0000000), wk =   0.1600000
        k(   13) = (   0.4000000  -0.4618802   0.0000000), wk =   0.1600000

     Check: negative core charge=   -0.000002

     Initial potential from superposition of free atoms

     starting charge  375.99373, renormalised to  376.00000

     negative rho (up, down):  1.209E-02 0.000E+00

     %%%%%%%%%%%%%%%%%%%%%%%%%%%%%%%%%%%%%%%%%%%%%%%%%%%%%%%%%%%%%%%%%%%%%%%%
     %                                                                      %
     % You are using vdW-DF, which was implemented by the Thonhauser group. %
     % Please cite the following two papers that made this development      %
     % possible and the two reviews that describe the various versions:     %
     %                                                                      %
     %   T. Thonhauser et al., PRL 115, 136402 (2015).                      %
     %   T. Thonhauser et al., PRB 76, 125112 (2007).                       %
     %   K. Berland et al., Rep. Prog. Phys. 78, 066501 (2015).             %
     %   D.C. Langreth et al., J. Phys.: Condens. Matter 21, 084203 (2009). %
     %                                                                      %
     %                                                                      %
     % If you are calculating the stress with vdW-DF, please also cite:     %
     %                                                                      %
     %   R. Sabatini et al., J. Phys.: Condens. Matter 24, 424209 (2012).   %
     %                                                                      %
     %%%%%%%%%%%%%%%%%%%%%%%%%%%%%%%%%%%%%%%%%%%%%%%%%%%%%%%%%%%%%%%%%%%%%%%%

     Starting wfcs are  340 randomized atomic wfcs
     Checking if some PAW data can be deallocated...

     Self-consistent Calculation

     iteration #  1     ecut=    60.00 Ry     beta= 0.70
     Davidson diagonalization with overlap
     ethr =  1.00E-02,  avg # of iterations =  2.0

     Threshold (ethr) on eigenvalues was too large:
     Diagonalizing with lowered threshold

     Davidson diagonalization with overlap
     ethr =  8.20E-04,  avg # of iterations =  2.6

[...]

     total energy              =  -27815.83979355 Ry
     estimated scf accuracy    <       3.36376041 Ry

[...]

     iteration #  4     ecut=    60.00 Ry     beta= 0.70
     Davidson diagonalization with overlap
     c_bands:  1 eigenvalues not converged
     ethr =  1.69E-04,  avg # of iterations = 11.5

[...]

     iteration # 10     ecut=    60.00 Ry     beta= 0.70
     Davidson diagonalization with overlap
     c_bands:  1 eigenvalues not converged
     ethr =  3.47E-07,  avg # of iterations = 10.8

[...]

     total energy              =  -27816.15219544 Ry
     estimated scf accuracy    <       0.00000129 Ry

     iteration # 21     ecut=    60.00 Ry     beta= 0.70
     Davidson diagonalization with overlap
     ethr =  3.43E-10,  avg # of iterations =  2.0

[...]

     End of self-consistent calculation

          k = 0.0000 0.0000 0.0000 ( 93155 PWs)   bands (ev):

   -14.1065 -11.3594  -7.6689  -6.9965  -5.8968  -5.4340  -4.9440  -4.8416
    -4.6166  -4.5980  -4.5919  -4.5591  -4.5499  -4.5065  -4.4808  -4.3642
    -4.0762  -4.0517  -4.0294  -4.0219  -4.0069  -3.9696  -3.7356  -3.6674
    -3.5903  -3.5827  -3.5569  -3.5021  -3.3929  -3.3782  -3.3610  -3.3582
    -3.3426  -3.2998  -3.2206  -3.2136  -3.1979  -3.1800  -3.1394  -3.1184
    -3.1079  -3.0703  -3.0574  -3.0363  -3.0325  -3.0259  -2.8621  -2.6138
    -2.5458  -2.5232  -2.5071  -2.4969  -2.4871  -2.4353  -2.4249  -2.4098
    -2.3580  -2.3132  -2.2463  -2.2348  -2.2245  -2.0722  -2.0448  -1.8028
    -1.7861  -1.7208  -1.6977  -1.6875  -1.6549  -1.6153  -1.5547  -1.5474
    -1.5055  -1.4979  -1.4942  -1.4859  -1.4767  -1.4635  -1.4390  -1.4295
    -1.4046  -1.3994  -1.3853  -1.3769  -1.3582  -1.3346  -1.3157  -1.2949
    -1.2915  -1.2704  -1.2142  -1.1049  -1.0969  -1.0848  -1.0558  -1.0351
    -1.0272  -1.0047  -0.9850  -0.9738  -0.9465  -0.9456  -0.9070  -0.8462
    -0.8434  -0.8013  -0.7970  -0.7834  -0.7447  -0.6916  -0.6835  -0.6636
    -0.6549  -0.6115  -0.6077  -0.4924  -0.3157  -0.2711  -0.2392  -0.2159
    -0.1543  -0.1436  -0.1406  -0.1116  -0.0679  -0.0139  -0.0105   0.0015
     0.0437   0.0620   0.0846   0.0946   0.1104   0.1401   0.2191   0.2581
     0.2832   0.3157   0.3496   0.3570   0.3966   0.5145   0.5525   0.5663
     0.5848   0.5925   0.6110   0.6274   0.6618   0.7046   0.7780   0.7905
     0.7975   0.8404   0.8712   0.8801   0.9153   0.9356   0.9469   1.0158
     1.0195   1.0362   1.0410   1.0421   1.0470   1.0591   1.0732   1.0829
     1.1220   1.1347   1.1460   1.1511   1.1574   1.2211   1.2291   1.2583
     1.2628   1.2739   1.3044   1.3203   1.3468   1.3808   1.4002   1.4047
     1.4074   1.4229   1.4316   1.4440   1.4704   1.4794   1.5091   1.5182
     1.5552   1.5672   1.6532   1.6796   1.7960   1.8006   1.8146   1.8474
     1.8548   1.8709   1.9244   2.2607   2.3422   2.6394   2.6829   2.7271
     2.7366   3.1790   3.8660   4.4824   4.9153   5.0125   5.0419   5.3026
     5.4141   5.6876   5.7363   6.3512   6.4517   6.6283   6.6622   6.6757
     6.6899   6.7813

[...]

          k = 0.4000-0.4619 0.0000 ( 93110 PWs)   bands (ev):

   -14.1057 -11.3587  -7.6662  -6.0663  -6.0326  -5.5733  -5.3913  -5.0334
    -4.9394  -4.5979  -4.5758  -4.2693  -4.2212  -4.1051  -4.0864  -3.9820
    -3.9692  -3.8706  -3.8513  -3.8077  -3.7478  -3.7313  -3.7255  -3.7177
    -3.6708  -3.6530  -3.6077  -3.5362  -3.5314  -3.5233  -3.4828  -3.4727
    -3.3784  -3.3178  -3.2697  -3.2518  -3.2186  -3.1754  -3.1432  -3.0926
    -3.0674  -3.0400  -2.9890  -2.9006  -2.8524  -2.8026  -2.7310  -2.6922
    -2.6606  -2.6305  -2.5609  -2.5434  -2.4569  -2.4031  -2.3833  -2.3553
    -2.3207  -2.2839  -2.2715  -2.2603  -2.2340  -2.1920  -2.1324  -2.1177
    -2.1055  -2.0615  -2.0532  -2.0414  -1.9942  -1.9646  -1.9500  -1.8663
    -1.8118  -1.7868  -1.7619  -1.7179  -1.6594  -1.6459  -1.6042  -1.5888
    -1.5539  -1.5225  -1.5137  -1.4624  -1.4379  -1.4125  -1.3753  -1.3602
    -1.3302  -1.2979  -1.2318  -1.2222  -1.2110  -1.1947  -1.1547  -1.0678
    -1.0421  -1.0352  -0.9929  -0.9756  -0.9668  -0.9499  -0.9277  -0.8927
    -0.8822  -0.8752  -0.8532  -0.8385  -0.8111  -0.7854  -0.7718  -0.7565
    -0.7418  -0.7265  -0.7038  -0.6804  -0.5838  -0.5158  -0.4643  -0.4388
    -0.3844  -0.3709  -0.3088  -0.3064  -0.2580  -0.2290  -0.2260  -0.1778
    -0.1677  -0.1200  -0.0984  -0.0548  -0.0330  -0.0185   0.0542   0.0947
     0.0995   0.1097   0.2131   0.2498   0.2851   0.3088   0.3413   0.3993
     0.4268   0.4559   0.4697   0.5121   0.5393   0.5484   0.5743   0.6357
     0.6363   0.6585   0.6851   0.7183   0.7385   0.7601   0.8176   0.8387
     0.9087   0.9562   1.0249   1.0632   1.0935   1.2045   1.2158   1.2272
     1.2606   1.3332   1.3537   1.3901   1.4621   1.4798   1.5186   1.5388
     1.5723   1.5905   1.6104   1.6177   1.6801   1.7098   1.7232   1.7387
     1.7510   1.7780   1.8094   1.8576   1.9076   1.9282   1.9749   1.9901
     2.0058   2.0499   2.0622   2.1576   2.2054   2.2935   2.7682   2.9818
     3.1575   3.2177   3.4096   3.4556   3.4804   3.6631   3.7103   3.9882
     4.0911   4.2495   4.3094   4.4166   4.6575   4.7772   4.8337   4.9269
     5.0586   5.1219   5.1565   5.3174   5.5376   5.5704   5.9671   6.0399
     6.1929   6.2768

     the Fermi energy is     1.7956 ev

!    total energy              =  -27816.15219534 Ry

     total all-electron energy =  -1326876.209890 Ry
     estimated scf accuracy    <       0.00000043 Ry
     smearing contrib. (-TS)   =       0.00237012 Ry
     internal energy E=F+TS    =  -27816.15456547 Ry

     The total energy is F=E-TS. E is the sum of the following terms:
     one-electron contribution =  -29808.49306339 Ry
     hartree contribution      =   15206.75110111 Ry
     xc contribution           =    -907.51136832 Ry
     ewald contribution        =   13186.73341720 Ry
     one-center paw contrib.   =  -25493.63465206 Ry

     convergence has been achieved in  21 iterations

[...]

     Forces acting on atoms (cartesian axes, Ry/au):

     atom    1 type  1   force =    -0.00244344   -0.00007648   -0.00450070
     atom    2 type  1   force =     0.00163996   -0.00092241   -0.00583101
     atom    3 type  1   force =    -0.00098169   -0.00008435   -0.00469362
     atom    4 type  1   force =    -0.00096616    0.00227576   -0.00465962
     atom    5 type  1   force =    -0.00139698   -0.00004845   -0.00304215
     atom    6 type  1   force =     0.00035735   -0.00014771   -0.00285119
     atom    7 type  1   force =    -0.00094861    0.00045401   -0.00412251
     atom    8 type  1   force =    -0.00051385    0.00129485   -0.00308641
     atom    9 type  1   force =    -0.00043313    0.00100665   -0.00476490
     atom   10 type  1   force =    -0.00408171    0.00179804    0.00255966
     atom   11 type  1   force =    -0.00207791    0.00043011    0.00231020
     atom   12 type  1   force =     0.00536643    0.00215370    0.00778634
     atom   13 type  1   force =     0.00068623   -0.00382648    0.00128152
     atom   14 type  1   force =     0.00153180   -0.00099729    0.00890753
     atom   15 type  1   force =     0.00055338   -0.00620674    0.00635271
     atom   16 type  1   force =     0.00331702    0.00125055    0.00251673
     atom   17 type  1   force =    -0.00178681    0.00118863    0.00285922
     atom   18 type  1   force =     0.00153370   -0.00089885   -0.00061748
     atom   19 type  1   force =    -0.00045829    0.00034758   -0.00053532
     atom   20 type  1   force =    -0.00014336    0.00035887    0.00078809
     atom   21 type  1   force =     0.00021150    0.00000021    0.00018130
     atom   22 type  1   force =     0.00001484    0.00077395    0.00144073
     atom   23 type  1   force =     0.00017102   -0.00005273   -0.00026405
     atom   24 type  1   force =     0.00016135    0.00070108    0.00028997
     atom   25 type  1   force =    -0.00039066    0.00046387    0.00006865
     atom   26 type  1   force =    -0.00009433   -0.00014447    0.00060461
     atom   27 type  1   force =     0.00036553    0.00012533    0.00046102
     atom   28 type  1   force =     0.00003736    0.00088712   -0.00008697
     atom   29 type  1   force =    -0.00130793   -0.00105184    0.00051676
     atom   30 type  1   force =     0.00052124   -0.00018261   -0.00177316
     atom   31 type  1   force =     0.00013528    0.00072299   -0.00097339
     atom   32 type  1   force =     0.00035053    0.00193406    0.00127724
     atom   33 type  1   force =    -0.00092266    0.00145263   -0.00026209
     atom   34 type  1   force =    -0.00011113   -0.00196467    0.00012054
     atom   35 type  1   force =    -0.00047962   -0.00115755    0.00238171
     atom   36 type  1   force =     0.00046182   -0.00064543   -0.00099082
     atom   37 type  2   force =    -0.00028392   -0.00018249    0.00268948
     atom   38 type  2   force =     0.00067057   -0.00074032   -0.00019529
     atom   39 type  2   force =    -0.00007077   -0.00252281   -0.00414220
     atom   40 type  3   force =    -0.00010423   -0.00141007   -0.00251209
     atom   41 type  3   force =    -0.00091918    0.00057150    0.00148159
     atom   42 type  3   force =     0.00093521    0.00304297    0.00204163
     atom   43 type  3   force =     0.00189423    0.00002932    0.00098773

     Total force =     0.009925     Total SCF correction =     0.002694
     SCF correction compared to forces is large: reduce conv_thr to get better values

[...]

     negative rho (up, down):  1.364E-02 0.000E+00

     negative rho (up, down):  1.364E-02 0.000E+00
 BEEFens 2000 ensemble energies
             -0.607524707248141E+02
             -0.361880378206757E+01
             -0.158549641872487E+02
              0.429880635014998E+02
             -0.221335731455945E+02
             -0.205480795130517E+02
             -0.352755512399817E+02
             -0.866089996011518E+02
             -0.465448026019485E+02
             -0.473066497698982E+02
             -0.369703948104066E+02
              0.227525658616548E+01
              0.408262912971088E+01
              0.761631839594523E+01
              0.266327638131111E+01
              0.475411220907425E+02
             -0.209043276393842E+02
             -0.230389286719106E+02
              0.193355875731949E+02
             -0.112499804764641E+03
              0.536924370671339E+02
             -0.289969195988444E+02
             -0.335300420461254E+01
             -0.114116920560254E+02
             -0.883766696036537E+01
             -0.464640120728703E+01
              0.883694695007599E+02
             -0.187238716490387E+02
             -0.901803216854262E+01
             -0.519101853213230E+02
              0.816314119363594E+02
             -0.187376242776363E+02
             -0.375495929094071E+02
              0.249456443332615E+02
             -0.284213865398334E+01
              0.164464537767751E+02
             -0.484585504225709E+01
              0.108042599665012E+02
              0.288793450540722E+02
             -0.103383788337690E+03
              0.558932550180792E+02
              0.142490869996124E+02
             -0.172475808046568E+01
             -0.361887105063667E+02
              0.123300797650545E+02
             -0.146857974662876E+02
              0.399027459960829E+02
              0.365174901333003E+02
             -0.308246439723770E+02
             -0.275519513789513E+02
             -0.328826174590467E+02
             -0.352492962625647E+02
              0.136544041305220E+02
             -0.491517651564818E+02
              0.115734585811315E+02
              0.623744514162398E+02
              0.636159614443980E+02
              0.356122063604255E+02
              0.154272722076006E+02
              0.270832816799266E+02
[...]
             -0.706969786995287E+02
             -0.896146640294887E+00
             -0.246257421817766E+01
             -0.883848096723284E+01
             -0.178944328542184E+01
             -0.653467208781880E+02
             -0.210773430220239E+02
              0.540831887634211E+01
              0.900303330217773E+01
              0.469369903759095E+02
             -0.398200714731742E+02
              0.657768308870467E+02
             -0.425638141440857E+02
              0.210635704841333E+02
              0.350763358107026E+02

 BEEF-vdW xc energy contributions
           1 :   -783.571780046597
           2 :    719.881968117030
           3 :   -609.547248724728
           4 :    479.550887981732
           5 :   -357.385803677980
           6 :    262.937810361069
           7 :   -203.940888330927
           8 :    175.912235622497
           9 :   -166.163289313197
          10 :    159.981373157961
          11 :   -146.453946196096
          12 :    121.737584717184
          13 :   -88.9158725734030
          14 :    55.0736725455009
          15 :   -27.2761156510180
          16 :    9.27644143039527
          17 :  -0.234942588932086
          18 :   -4.29772904980382
          19 :    9.86007356522430
          20 :   -20.3532438799034
          21 :    36.3597022276772
          22 :   -55.1696450744387
          23 :    72.3293898063473
          24 :   -83.8643011598710
          25 :    88.0867445844505
          26 :   -86.1968654222482
          27 :    81.4928902843093
          28 :   -77.6689662020447
          29 :    77.0609109942911
          30 :   -79.6657189360345
          31 :   -85.9956069900337
          32 :   -65.9267749169749

     Writing output data file ./pwscf.save/

     General routines

     Parallel routines

   This run was terminated on:   2:51:42   4Jan2023

   JOB DONE.