     Program PWSCF v.6.7MaX starts on 20Dec2022 at 15:48:30

     Reading input from chch2-bi-ensemble.in
Warning: card &CELL ignored
Warning: card / ignored

     Current dimensions of program PWSCF are:
     Max number of different atomic species (ntypx) = 10
     Max number of k-points (npk) =  40000
     Max angular momentum in pseudopotentials (lmaxx) =  3
     file Pt.pbe-n-kjpaw_psl.1.0.0.UPF: wavefunction(s)  6S 5D renormalized
     file C.pbe-n-kjpaw_psl.1.0.0.UPF: wavefunction(s)  2S 2P renormalized
     file H.pbe-kjpaw_psl.1.0.0.UPF: wavefunction(s)  1S renormalized

     IMPORTANT: XC functional enforced from input :
     Exchange-correlation= BEEF-VDW
                           (   1   4  43  14   2   0   0)
     Any further DFT definition will be discarded
     Please, verify this is what you really want

     Subspace diagonalization in iterative solution of the eigenvalue problem:
     a serial algorithm will be used

     bravais-lattice index     =            0
     lattice parameter (alat)  =      16.0349  a.u.
     unit-cell volume          =   11140.1661 (a.u.)^3
     number of atoms/cell      =           41
     number of atomic types    =            3
     number of electrons       =       371.00
     number of Kohn-Sham states=          223
     kinetic-energy cutoff     =      60.0000  Ry
     charge density cutoff     =     240.0000  Ry
     scf convergence threshold =      1.0E-06
     mixing beta               =       0.7000
     number of iterations used =            8  local-TF  mixing
     Exchange-correlation= BEEF-VDW
                           (   1   4  43  14   2   0   0)

     celldm(1)=  16.034858  celldm(2)=   0.000000  celldm(3)=   0.000000
     celldm(4)=   0.000000  celldm(5)=   0.000000  celldm(6)=   0.000000

     crystal axes: (cart. coord. in units of alat)
               a(1) = (   1.000000   0.000000   0.000000 )
               a(2) = (   0.500000   0.866025   0.000000 )
               a(3) = (   0.000000   0.000000   3.120080 )

     reciprocal axes: (cart. coord. in units 2 pi/alat)
               b(1) = (  1.000000 -0.577350  0.000000 )
               b(2) = (  0.000000  1.154701  0.000000 )
               b(3) = (  0.000000  0.000000  0.320505 )

     PseudoPot. # 1 for Pt read from file:
     /users/bkreitz1/quantum-espresso/potentials/Pt.pbe-n-kjpaw_psl.1.0.0.UPF
     MD5 check sum: 04dc8a03c51ece93fc7b5889c2958091
     Pseudo is Projector augmented-wave + core cor, Zval = 10.0
     Generated using 'atomic' code by A. Dal Corso  v.6.7MaX
     Shape of augmentation charge: PSQ
     Using radial grid of 1277 points,  6 beta functions with:
                l(1) =   0
                l(2) =   0
                l(3) =   1
                l(4) =   1
                l(5) =   2
                l(6) =   2
     Q(r) pseudized with 0 coefficients

     PseudoPot. # 2 for C  read from file:
     /users/bkreitz1/quantum-espresso/potentials/C.pbe-n-kjpaw_psl.1.0.0.UPF
     MD5 check sum: a169b0ebad56f5ec0d79c4633f80bf22
     Pseudo is Projector augmented-wave + core cor, Zval =  4.0
     Generated using 'atomic' code by A. Dal Corso  v.6.7MaX
     Shape of augmentation charge: PSQ
     Using radial grid of 1073 points,  4 beta functions with:
                l(1) =   0
                l(2) =   0
                l(3) =   1
                l(4) =   1
     Q(r) pseudized with 0 coefficients

     PseudoPot. # 3 for H  read from file:
     /users/bkreitz1/quantum-espresso/potentials/H.pbe-kjpaw_psl.1.0.0.UPF
     MD5 check sum: ae98473e6dc62675f0d0baffdab24f65
     Pseudo is Projector augmented-wave, Zval =  1.0
     Generated using 'atomic' code by A. Dal Corso  v.6.7MaX
     Shape of augmentation charge: PSQ
     Using radial grid of  929 points,  2 beta functions with:
                l(1) =   0
                l(2) =   0
     Q(r) pseudized with 0 coefficients

     atomic species   valence    mass     pseudopotential
        Pt            10.00   195.08400     Pt( 1.00)
        C              4.00    12.01100     C ( 1.00)
        H              1.00     1.00800     H ( 1.00)

     No symmetry found

   Cartesian axes

     site n.     atom                  positions (alat units)
         1           Pt  tau(   1) = (   0.0000000   0.0000000   1.0017346  )
         2           Pt  tau(   2) = (   0.3333333   0.0000000   1.0017346  )
         3           Pt  tau(   3) = (   0.6666667   0.0000000   1.0017346  )
         4           Pt  tau(   4) = (   0.1666667   0.2886751   1.0017346  )
         5           Pt  tau(   5) = (   0.5000000   0.2886751   1.0017346  )
         6           Pt  tau(   6) = (   0.8333333   0.2886751   1.0017346  )
         7           Pt  tau(   7) = (   0.3333333   0.5773503   1.0017346  )
         8           Pt  tau(   8) = (   0.6666667   0.5773503   1.0017346  )
         9           Pt  tau(   9) = (   1.0000000   0.5773503   1.0017346  )
        10           Pt  tau(  10) = (   0.1666667   0.0962250   1.2739001  )
        11           Pt  tau(  11) = (   0.5000000   0.0962250   1.2739001  )
        12           Pt  tau(  12) = (   0.8333333   0.0962250   1.2739001  )
        13           Pt  tau(  13) = (   0.3333333   0.3849002   1.2739001  )
        14           Pt  tau(  14) = (   0.6666667   0.3849002   1.2739001  )
        15           Pt  tau(  15) = (   1.0000000   0.3849002   1.2739001  )
        16           Pt  tau(  16) = (   0.5000000   0.6735753   1.2739001  )
        17           Pt  tau(  17) = (   0.8333333   0.6735753   1.2739001  )
        18           Pt  tau(  18) = (   1.1666667   0.6735753   1.2739001  )
        19           Pt  tau(  19) = (   0.0013950   0.1933352   1.5452384  )
        20           Pt  tau(  20) = (   0.3337103   0.1921720   1.5456545  )
        21           Pt  tau(  21) = (   0.6659262   0.1932630   1.5448428  )
        22           Pt  tau(  22) = (   0.1665266   0.4793753   1.5452373  )
        23           Pt  tau(  23) = (   0.5009764   0.4785038   1.5469386  )
        24           Pt  tau(  24) = (   0.8334113   0.4809996   1.5438567  )
        25           Pt  tau(  25) = (   0.3345711   0.7690102   1.5387865  )
        26           Pt  tau(  26) = (   0.6693702   0.7701502   1.5469353  )
        27           Pt  tau(  27) = (   0.9988656   0.7699146   1.5448258  )
        28           Pt  tau(  28) = (  -0.0011878  -0.0011143   1.8150995  )
        29           Pt  tau(  29) = (   0.3343090   0.0025057   1.8348070  )
        30           Pt  tau(  30) = (   0.6711778  -0.0027389   1.8129489  )
        31           Pt  tau(  31) = (   0.1599949   0.2924246   1.8307451  )
        32           Pt  tau(  32) = (   0.4982298   0.2864525   1.8348409  )
        33           Pt  tau(  33) = (   0.8313514   0.2888371   1.8183601  )
        34           Pt  tau(  34) = (   0.3335838   0.5787468   1.8151162  )
        35           Pt  tau(  35) = (   0.6660745   0.5775661   1.8193869  )
        36           Pt  tau(  36) = (   0.9987325   0.5787982   1.8183555  )
        37           C   tau(  37) = (   0.3868751   0.1614594   2.0121692  )
        38           C   tau(  38) = (   0.2420405   0.2449616   2.0595483  )
        39           H   tau(  39) = (   0.4677003   0.1147576   2.1010024  )
        40           H   tau(  40) = (   0.2614109   0.3565832   2.1207084  )
        41           H   tau(  41) = (   0.1551084   0.1721360   2.1216708  )

     number of k points=    13  Marzari-Vanderbilt smearing, width (Ry)=  0.0200
                       cart. coord. in units 2pi/alat
        k(    1) = (   0.0000000   0.0000000   0.0000000), wk =   0.0800000
        k(    2) = (   0.0000000   0.2309401   0.0000000), wk =   0.1600000
        k(    3) = (   0.0000000   0.4618802   0.0000000), wk =   0.1600000
        k(    4) = (   0.2000000  -0.1154701   0.0000000), wk =   0.1600000
        k(    5) = (   0.2000000   0.1154701   0.0000000), wk =   0.1600000
        k(    6) = (   0.2000000   0.3464102   0.0000000), wk =   0.1600000
        k(    7) = (   0.2000000  -0.5773503   0.0000000), wk =   0.1600000
        k(    8) = (   0.2000000  -0.3464102   0.0000000), wk =   0.1600000
        k(    9) = (   0.4000000  -0.2309401   0.0000000), wk =   0.1600000
        k(   10) = (   0.4000000  -0.0000000   0.0000000), wk =   0.1600000
        k(   11) = (   0.4000000   0.2309401   0.0000000), wk =   0.1600000
        k(   12) = (   0.4000000  -0.6928203   0.0000000), wk =   0.1600000
        k(   13) = (   0.4000000  -0.4618802   0.0000000), wk =   0.1600000

     Check: negative core charge=   -0.000001

     Initial potential from superposition of free atoms

     starting charge  370.99378, renormalised to  371.00000

     negative rho (up, down):  1.159E-02 0.000E+00

     %%%%%%%%%%%%%%%%%%%%%%%%%%%%%%%%%%%%%%%%%%%%%%%%%%%%%%%%%%%%%%%%%%%%%%%%
     %                                                                      %
     % You are using vdW-DF, which was implemented by the Thonhauser group. %
     % Please cite the following two papers that made this development      %
     % possible and the two reviews that describe the various versions:     %
     %                                                                      %
     %   T. Thonhauser et al., PRL 115, 136402 (2015).                      %
     %   T. Thonhauser et al., PRB 76, 125112 (2007).                       %
     %   K. Berland et al., Rep. Prog. Phys. 78, 066501 (2015).             %
     %   D.C. Langreth et al., J. Phys.: Condens. Matter 21, 084203 (2009). %
     %                                                                      %
     %                                                                      %
     % If you are calculating the stress with vdW-DF, please also cite:     %
     %                                                                      %
     %   R. Sabatini et al., J. Phys.: Condens. Matter 24, 424209 (2012).   %
     %                                                                      %
     %%%%%%%%%%%%%%%%%%%%%%%%%%%%%%%%%%%%%%%%%%%%%%%%%%%%%%%%%%%%%%%%%%%%%%%%

     Starting wfcs are  335 randomized atomic wfcs
     Checking if some PAW data can be deallocated...

     Self-consistent Calculation

     iteration #  1     ecut=    60.00 Ry     beta= 0.70
     Davidson diagonalization with overlap
     ethr =  1.00E-02,  avg # of iterations =  2.0

     Threshold (ethr) on eigenvalues was too large:
     Diagonalizing with lowered threshold

     Davidson diagonalization with overlap
     ethr =  7.79E-04,  avg # of iterations =  2.6

[...]

     total energy              =  -27795.58389330 Ry
     estimated scf accuracy    <       3.18098300 Ry

[...]

     iteration #  5     ecut=    60.00 Ry     beta= 0.70
     Davidson diagonalization with overlap
     c_bands:  2 eigenvalues not converged
     ethr =  5.32E-05,  avg # of iterations =  6.7

[...]

     iteration # 11     ecut=    60.00 Ry     beta= 0.70
     Davidson diagonalization with overlap
     c_bands:  1 eigenvalues not converged
     ethr =  2.47E-07,  avg # of iterations =  5.4

[...]

     total energy              =  -27795.92318354 Ry
     estimated scf accuracy    <       0.00000109 Ry

     iteration # 20     ecut=    60.00 Ry     beta= 0.70
     Davidson diagonalization with overlap
     ethr =  2.95E-10,  avg # of iterations =  1.0

[...]

     End of self-consistent calculation

          k = 0.0000 0.0000 0.0000 ( 87531 PWs)   bands (ev):

   -12.6093  -8.3355  -6.6798  -5.5257  -5.1363  -4.5859  -4.3646  -4.2930
    -4.2780  -4.2594  -4.2519  -4.2358  -4.2165  -4.1808  -3.7992  -3.7215
    -3.7126  -3.7006  -3.6994  -3.6958  -3.5601  -3.2784  -3.2600  -3.2557
    -3.2308  -3.2068  -3.1319  -3.0549  -3.0481  -3.0350  -3.0038  -2.9960
    -2.9339  -2.8446  -2.8330  -2.8257  -2.8157  -2.7839  -2.7626  -2.7607
    -2.7549  -2.7446  -2.7262  -2.7158  -2.5151  -2.2995  -2.2532  -2.1938
    -2.1923  -2.1666  -2.1536  -2.1323  -2.1089  -2.0992  -1.9689  -1.9631
    -1.9584  -1.9135  -1.9098  -1.5469  -1.5130  -1.4455  -1.3827  -1.3762
    -1.3702  -1.3193  -1.2728  -1.2420  -1.2218  -1.1914  -1.1784  -1.1739
    -1.1701  -1.1695  -1.1485  -1.1455  -1.1320  -1.1193  -1.1076  -1.0906
    -1.0714  -1.0493  -1.0456  -0.9862  -0.9772  -0.9701  -0.9208  -0.8218
    -0.7869  -0.7829  -0.7718  -0.7479  -0.7303  -0.7130  -0.7103  -0.6750
    -0.6442  -0.6382  -0.6052  -0.5850  -0.5722  -0.5672  -0.5388  -0.5337
    -0.4993  -0.4973  -0.4907  -0.3667  -0.3395  -0.3198  -0.3034  -0.2356
    -0.1756  -0.0779   0.1130   0.1139   0.1290   0.1571   0.1586   0.1605
     0.1655   0.2427   0.2686   0.2876   0.3142   0.3363   0.3489   0.3983
     0.4146   0.4419   0.4520   0.4675   0.5057   0.5412   0.6091   0.6406
     0.6479   0.6715   0.6792   0.8569   0.8624   0.8710   0.9021   0.9034
     0.9260   0.9501   0.9515   1.0087   1.1410   1.1490   1.1513   1.1975
     1.2024   1.2523   1.2542   1.2975   1.3014   1.3238   1.3259   1.3404
     1.3445   1.3597   1.3597   1.3815   1.3848   1.3947   1.4289   1.4361
     1.4586   1.4659   1.4746   1.5273   1.5291   1.5730   1.5791   1.5797
     1.6075   1.6182   1.6488   1.6550   1.7015   1.7020   1.7164   1.7210
     1.7266   1.7463   1.7682   1.7841   1.8228   1.8431   1.8584   1.8608
     1.9937   2.0124   2.1141   2.1261   2.1307   2.1487   2.1503   2.1775
     2.4828   2.5356   2.7397   2.9557   3.0100   3.0494   3.0616   3.9217
     4.2508   4.7653   5.3063   5.3275   5.3279   5.8402   5.9734   6.1382
     6.6935   6.8330   6.9573   6.9686   6.9778   6.9946   7.0328

[...]

          k = 0.4000-0.4619 0.0000 ( 87468 PWs)   bands (ev):

   -12.6083  -8.3369  -5.7310  -5.7113  -5.2547  -5.0923  -4.5615  -4.5054
    -4.4367  -3.9738  -3.9523  -3.7986  -3.7788  -3.7428  -3.6459  -3.6451
    -3.5589  -3.5304  -3.4799  -3.4319  -3.4153  -3.3989  -3.3848  -3.3542
    -3.2816  -3.2516  -3.2161  -3.2127  -3.1867  -3.1671  -3.0765  -2.9823
    -2.9589  -2.8720  -2.8529  -2.8153  -2.8104  -2.7944  -2.7045  -2.6900
    -2.6411  -2.5954  -2.5909  -2.4006  -2.3898  -2.3630  -2.2970  -2.2152
    -2.1991  -2.1770  -2.1112  -2.0689  -2.0435  -2.0087  -1.9746  -1.9297
    -1.9082  -1.8781  -1.8278  -1.8017  -1.8005  -1.7654  -1.7530  -1.7196
    -1.7072  -1.6647  -1.6332  -1.5943  -1.5454  -1.5156  -1.4724  -1.4536
    -1.4131  -1.3614  -1.3251  -1.3028  -1.2758  -1.2440  -1.2277  -1.2208
    -1.1958  -1.1681  -1.1277  -1.1104  -1.0724  -1.0315  -1.0034  -0.9611
    -0.9241  -0.9108  -0.8974  -0.8557  -0.8402  -0.7548  -0.7167  -0.6926
    -0.6838  -0.6673  -0.6439  -0.6092  -0.6051  -0.5920  -0.5774  -0.5613
    -0.5322  -0.5150  -0.5045  -0.4662  -0.4538  -0.4427  -0.4350  -0.4262
    -0.3891  -0.3704  -0.2413  -0.1897  -0.1166  -0.0995  -0.0887  -0.0086
     0.0197   0.0360   0.0737   0.1053   0.1146   0.1409   0.1705   0.2177
     0.2187   0.2609   0.2840   0.3094   0.3456   0.4029   0.4370   0.4527
     0.5336   0.5851   0.6135   0.6681   0.6815   0.7314   0.7387   0.7781
     0.7846   0.8214   0.8386   0.8743   0.8796   0.9271   0.9418   0.9790
     1.0295   1.0509   1.0562   1.0848   1.1202   1.1612   1.2349   1.2874
     1.3348   1.3709   1.4304   1.4960   1.5358   1.5694   1.6319   1.6446
     1.6659   1.7291   1.7683   1.8290   1.8336   1.8371   1.8617   1.8920
     1.9394   1.9451   2.0081   2.0243   2.0440   2.0488   2.0696   2.0889
     2.0978   2.1782   2.2349   2.2597   2.3028   2.3181   2.3293   2.3530
     2.3836   2.4709   2.5685   3.0287   3.2774   3.4125   3.4780   3.4885
     3.7116   3.8076   3.8833   3.8921   4.1962   4.3595   4.4805   4.5750
     4.7298   4.9470   5.0462   5.0703   5.1229   5.3040   5.3578   5.4006
     5.5096   5.6829   5.8801   6.0466   6.3648   6.5136   6.5776

     the Fermi energy is     2.0977 ev

!    total energy              =  -27795.92318307 Ry

     total all-electron energy =  -1326798.216785 Ry
     estimated scf accuracy    <       0.00000053 Ry
     smearing contrib. (-TS)   =       0.00191581 Ry
     internal energy E=F+TS    =  -27795.92509888 Ry

     The total energy is F=E-TS. E is the sum of the following terms:
     one-electron contribution =  -26008.95596489 Ry
     hartree contribution      =   13309.53127838 Ry
     xc contribution           =    -901.86079718 Ry
     ewald contribution        =   11292.42582960 Ry
     one-center paw contrib.   =  -25487.06544478 Ry

     convergence has been achieved in  20 iterations

[...]

     Forces acting on atoms (cartesian axes, Ry/au):

     atom    1 type  1   force =     0.00085454    0.00159314   -0.00468827
     atom    2 type  1   force =     0.00013301    0.00003425   -0.00353841
     atom    3 type  1   force =    -0.00121405    0.00068753   -0.00560388
     atom    4 type  1   force =    -0.00022916    0.00012821   -0.00434060
     atom    5 type  1   force =     0.00001903   -0.00015487   -0.00352279
     atom    6 type  1   force =    -0.00001948   -0.00073739   -0.00354429
     atom    7 type  1   force =    -0.00096354   -0.00156931   -0.00469000
     atom    8 type  1   force =    -0.00050846    0.00026665   -0.00265105
     atom    9 type  1   force =     0.00062760    0.00035139   -0.00355662
     atom   10 type  1   force =    -0.00095369   -0.00175307    0.00780869
     atom   11 type  1   force =     0.00186607   -0.00112007    0.00499040
     atom   12 type  1   force =    -0.00043159    0.00002071   -0.00377476
     atom   13 type  1   force =     0.00099808    0.00164872    0.00781870
     atom   14 type  1   force =    -0.00106942    0.00012101    0.00856824
     atom   15 type  1   force =     0.00081860   -0.00051243    0.00823215
     atom   16 type  1   force =     0.00137845   -0.00087503   -0.00324574
     atom   17 type  1   force =    -0.00068342    0.00075287    0.00857088
     atom   18 type  1   force =    -0.00026391    0.00026914   -0.00377509
     atom   19 type  1   force =    -0.00011609    0.00007884   -0.00002031
     atom   20 type  1   force =    -0.00010673    0.00003425    0.00047927
     atom   21 type  1   force =    -0.00003773    0.00001381   -0.00026420
     atom   22 type  1   force =    -0.00012766   -0.00001171    0.00003069
     atom   23 type  1   force =    -0.00004219    0.00015062   -0.00019263
     atom   24 type  1   force =     0.00002378   -0.00001527   -0.00023068
     atom   25 type  1   force =    -0.00010470    0.00005529    0.00042379
     atom   26 type  1   force =    -0.00017120   -0.00005320   -0.00017130
     atom   27 type  1   force =    -0.00005895    0.00002020   -0.00023918
     atom   28 type  1   force =    -0.00010852   -0.00000524    0.00030108
     atom   29 type  1   force =    -0.00035543   -0.00021896   -0.00041447
     atom   30 type  1   force =     0.00012442   -0.00008796    0.00046742
     atom   31 type  1   force =    -0.00046490   -0.00006466    0.00029919
     atom   32 type  1   force =    -0.00004388    0.00035275   -0.00045704
     atom   33 type  1   force =    -0.00001819    0.00010339    0.00018369
     atom   34 type  1   force =    -0.00005512    0.00010200    0.00028681
     atom   35 type  1   force =     0.00023644   -0.00014090    0.00016147
     atom   36 type  1   force =    -0.00009104   -0.00004468    0.00016692
     atom   37 type  2   force =     0.00051307   -0.00037567    0.00066497
     atom   38 type  2   force =    -0.00284837   -0.00219874    0.00306847
     atom   39 type  3   force =    -0.00010075   -0.00001770    0.00011149
     atom   40 type  3   force =     0.00024101    0.00049774   -0.00023156
     atom   41 type  3   force =     0.00335406    0.00267434   -0.00348146

     Total force =     0.007518     Total SCF correction =     0.002814
     SCF correction compared to forces is large: reduce conv_thr to get better values

[...]

     negative rho (up, down):  1.285E-02 0.000E+00

     negative rho (up, down):  1.285E-02 0.000E+00
 BEEFens 2000 ensemble energies
             -0.603341950723872E+02
             -0.360042254050069E+01
             -0.157658516841660E+02
              0.427068823725650E+02
             -0.220044343903395E+02
             -0.204426040946426E+02
             -0.349682805273698E+02
             -0.859799214091111E+02
             -0.463139750923983E+02
             -0.470693377145417E+02
             -0.367346414241368E+02
              0.223490710195312E+01
              0.405329588761921E+01
              0.765051193946499E+01
              0.263689610819938E+01
              0.472391751593482E+02
             -0.207748189412245E+02
             -0.229649411160188E+02
              0.191859891465577E+02
             -0.111784866700798E+03
              0.533237486903266E+02
             -0.288818227253126E+02
             -0.331453631722830E+01
             -0.113595174860704E+02
             -0.884825550678579E+01
             -0.460662509042177E+01
              0.878032758912579E+02
             -0.185856691441020E+02
             -0.895532237018438E+01
             -0.515400100068079E+02
              0.811835966391091E+02
             -0.187045404227753E+02
             -0.372805661979562E+02
              0.248203400768480E+02
             -0.282897390851963E+01
              0.162619664222541E+02
             -0.486018075741794E+01
              0.108040292014346E+02
              0.286429179841469E+02
             -0.102732034378044E+03
              0.555468172708507E+02
              0.141676437716892E+02
             -0.165415295732186E+01
             -0.359857572207650E+02
              0.122576556796066E+02
             -0.145786506801518E+02
              0.395775970859618E+02
              0.362902378537684E+02
             -0.307060720847978E+02
             -0.273451486253216E+02
             -0.326879311940422E+02
             -0.350149289587030E+02
              0.135242305758171E+02
             -0.488029844021847E+02
              0.114691460879707E+02
              0.619741555640989E+02
              0.631298801031060E+02
              0.354104864295428E+02
              0.153141769215994E+02
              0.268776986307367E+02
[...]
             -0.702094821457938E+02
             -0.915499123225004E+00
             -0.247482864726695E+01
             -0.876584679720520E+01
             -0.182161150971774E+01
             -0.649268281817624E+02
             -0.210163067988699E+02
              0.532355659037513E+01
              0.892040554126498E+01
              0.466123581514852E+02
             -0.395441636042489E+02
              0.654316842832899E+02
             -0.423164760580933E+02
              0.208900556305706E+02
              0.347937564255728E+02

 BEEF-vdW xc energy contributions
           1 :   -778.867639839084
           2 :    715.858622114165
           3 :   -606.585247291006
           4 :    477.689663386633
           5 :   -356.444880302886
           6 :    262.645116251201
           7 :   -204.025635482839
           8 :    176.162648222249
           9 :   -166.451329864392
          10 :    160.255760878979
          11 :   -146.710949481325
          12 :    121.987527753079
          13 :   -89.1633471175417
          14 :    55.3118363056451
          15 :   -27.4876322806605
          16 :    9.43923082144977
          17 :  -0.331918251495949
          18 :   -4.26950366565677
          19 :    9.88619478558587
          20 :   -20.4043751554493
          21 :    36.3985612710687
          22 :   -55.1580963069148
          23 :    72.2353085758925
          24 :   -83.6711498813681
          25 :    87.7996486656048
          26 :   -85.8366852869719
          27 :    81.0886303229398
          28 :   -77.2575753367097
          29 :    76.6869278585924
          30 :   -79.3763790629004
          31 :   -85.3636989413422
          32 :   -65.4968628894320

     Writing output data file ./pwscf.save/

     General routines

     Parallel routines

   This run was terminated on:  19:29:40  20Dec2022

   JOB DONE.