     Program PWSCF v.6.7MaX starts on  4Jan2023 at 10:11:54

     Reading input from chchch-bi-ensemble.in
Warning: card &CELL ignored
Warning: card / ignored

     Current dimensions of program PWSCF are:
     Max number of different atomic species (ntypx) = 10
     Max number of k-points (npk) =  40000
     Max angular momentum in pseudopotentials (lmaxx) =  3
     file Pt.pbe-n-kjpaw_psl.1.0.0.UPF: wavefunction(s)  6S 5D renormalized
     file C.pbe-n-kjpaw_psl.1.0.0.UPF: wavefunction(s)  2S 2P renormalized
     file H.pbe-kjpaw_psl.1.0.0.UPF: wavefunction(s)  1S renormalized

     IMPORTANT: XC functional enforced from input :
     Exchange-correlation= BEEF-VDW
                           (   1   4  43  14   2   0   0)
     Any further DFT definition will be discarded
     Please, verify this is what you really want

     Subspace diagonalization in iterative solution of the eigenvalue problem:
     a serial algorithm will be used

     bravais-lattice index     =            0
     lattice parameter (alat)  =      16.0349  a.u.
     unit-cell volume          =   11691.4349 (a.u.)^3
     number of atoms/cell      =           42
     number of atomic types    =            3
     number of electrons       =       375.00
     number of Kohn-Sham states=          226
     kinetic-energy cutoff     =      60.0000  Ry
     charge density cutoff     =     240.0000  Ry
     scf convergence threshold =      1.0E-06
     mixing beta               =       0.7000
     number of iterations used =            8  local-TF  mixing
     Exchange-correlation= BEEF-VDW
                           (   1   4  43  14   2   0   0)

     celldm(1)=  16.034858  celldm(2)=   0.000000  celldm(3)=   0.000000
     celldm(4)=   0.000000  celldm(5)=   0.000000  celldm(6)=   0.000000

     crystal axes: (cart. coord. in units of alat)
               a(1) = (   1.000000   0.000000   0.000000 )
               a(2) = (   0.500000   0.866025   0.000000 )
               a(3) = (   0.000000   0.000000   3.274476 )

     reciprocal axes: (cart. coord. in units 2 pi/alat)
               b(1) = (  1.000000 -0.577350  0.000000 )
               b(2) = (  0.000000  1.154701  0.000000 )
               b(3) = (  0.000000  0.000000  0.305392 )

     PseudoPot. # 1 for Pt read from file:
     /users/bkreitz1/quantum-espresso/potentials/Pt.pbe-n-kjpaw_psl.1.0.0.UPF
     MD5 check sum: 04dc8a03c51ece93fc7b5889c2958091
     Pseudo is Projector augmented-wave + core cor, Zval = 10.0
     Generated using 'atomic' code by A. Dal Corso  v.6.7MaX
     Shape of augmentation charge: PSQ
     Using radial grid of 1277 points,  6 beta functions with:
                l(1) =   0
                l(2) =   0
                l(3) =   1
                l(4) =   1
                l(5) =   2
                l(6) =   2
     Q(r) pseudized with 0 coefficients

     PseudoPot. # 2 for C  read from file:
     /users/bkreitz1/quantum-espresso/potentials/C.pbe-n-kjpaw_psl.1.0.0.UPF
     MD5 check sum: a169b0ebad56f5ec0d79c4633f80bf22
     Pseudo is Projector augmented-wave + core cor, Zval =  4.0
     Generated using 'atomic' code by A. Dal Corso  v.6.7MaX
     Shape of augmentation charge: PSQ
     Using radial grid of 1073 points,  4 beta functions with:
                l(1) =   0
                l(2) =   0
                l(3) =   1
                l(4) =   1
     Q(r) pseudized with 0 coefficients

     PseudoPot. # 3 for H  read from file:
     /users/bkreitz1/quantum-espresso/potentials/H.pbe-kjpaw_psl.1.0.0.UPF
     MD5 check sum: ae98473e6dc62675f0d0baffdab24f65
     Pseudo is Projector augmented-wave, Zval =  1.0
     Generated using 'atomic' code by A. Dal Corso  v.6.7MaX
     Shape of augmentation charge: PSQ
     Using radial grid of  929 points,  2 beta functions with:
                l(1) =   0
                l(2) =   0
     Q(r) pseudized with 0 coefficients

     atomic species   valence    mass     pseudopotential
        Pt            10.00   195.08400     Pt( 1.00)
        C              4.00    12.01100     C ( 1.00)
        H              1.00     1.00800     H ( 1.00)

     No symmetry found

   Cartesian axes

     site n.     atom                  positions (alat units)
         1           Pt  tau(   1) = (   0.0000000   0.0000000   1.0017346  )
         2           Pt  tau(   2) = (   0.3333333   0.0000000   1.0017346  )
         3           Pt  tau(   3) = (   0.6666667   0.0000000   1.0017346  )
         4           Pt  tau(   4) = (   0.1666667   0.2886751   1.0017346  )
         5           Pt  tau(   5) = (   0.5000000   0.2886751   1.0017346  )
         6           Pt  tau(   6) = (   0.8333333   0.2886751   1.0017346  )
         7           Pt  tau(   7) = (   0.3333333   0.5773503   1.0017346  )
         8           Pt  tau(   8) = (   0.6666667   0.5773503   1.0017346  )
         9           Pt  tau(   9) = (   1.0000000   0.5773503   1.0017346  )
        10           Pt  tau(  10) = (   0.1666667   0.0962250   1.2739001  )
        11           Pt  tau(  11) = (   0.5000000   0.0962250   1.2739001  )
        12           Pt  tau(  12) = (   0.8333333   0.0962250   1.2739001  )
        13           Pt  tau(  13) = (   0.3333333   0.3849002   1.2739001  )
        14           Pt  tau(  14) = (   0.6666667   0.3849002   1.2739001  )
        15           Pt  tau(  15) = (   1.0000000   0.3849002   1.2739001  )
        16           Pt  tau(  16) = (   0.5000000   0.6735753   1.2739001  )
        17           Pt  tau(  17) = (   0.8333333   0.6735753   1.2739001  )
        18           Pt  tau(  18) = (   1.1666667   0.6735753   1.2739001  )
        19           Pt  tau(  19) = (   0.0008885   0.1920763   1.5399849  )
        20           Pt  tau(  20) = (   0.3365057   0.1930900   1.5460129  )
        21           Pt  tau(  21) = (   0.6650574   0.1938638   1.5481395  )
        22           Pt  tau(  22) = (   0.1679338   0.4804885   1.5410955  )
        23           Pt  tau(  23) = (   0.5023371   0.4799894   1.5483857  )
        24           Pt  tau(  24) = (   0.8321574   0.4824374   1.5479972  )
        25           Pt  tau(  25) = (   0.3345356   0.7698947   1.5412262  )
        26           Pt  tau(  26) = (   0.6679318   0.7666843   1.5462639  )
        27           Pt  tau(  27) = (   1.0015449   0.7691868   1.5427209  )
        28           Pt  tau(  28) = (   0.0036123   0.0001749   1.8162404  )
        29           Pt  tau(  29) = (   0.3369657  -0.0009873   1.8151502  )
        30           Pt  tau(  30) = (   0.6718839  -0.0040226   1.8170699  )
        31           Pt  tau(  31) = (   0.1686366   0.2867602   1.8159350  )
        32           Pt  tau(  32) = (   0.5043687   0.2843204   1.8384714  )
        33           Pt  tau(  33) = (   0.8416162   0.2846973   1.8151391  )
        34           Pt  tau(  34) = (   0.3356050   0.5770561   1.8135910  )
        35           Pt  tau(  35) = (   0.6736095   0.5773085   1.8384316  )
        36           Pt  tau(  36) = (   1.0071412   0.5759604   1.8169106  )
        37           C   tau(  37) = (   0.5158060   0.3063189   2.0657729  )
        38           C   tau(  38) = (   0.5923870   0.4288118   2.1433762  )
        39           C   tau(  39) = (   0.6657300   0.5532547   2.0655900  )
        40           H   tau(  40) = (   0.4595520   0.2150453   2.1363535  )
        41           H   tau(  41) = (   0.5938861   0.4280258   2.2718901  )
        42           H   tau(  42) = (   0.7233615   0.6437089   2.1373154  )

     number of k points=    13  Marzari-Vanderbilt smearing, width (Ry)=  0.0200
                       cart. coord. in units 2pi/alat
        k(    1) = (   0.0000000   0.0000000   0.0000000), wk =   0.0800000
        k(    2) = (   0.0000000   0.2309401   0.0000000), wk =   0.1600000
        k(    3) = (   0.0000000   0.4618802   0.0000000), wk =   0.1600000
        k(    4) = (   0.2000000  -0.1154701   0.0000000), wk =   0.1600000
        k(    5) = (   0.2000000   0.1154701   0.0000000), wk =   0.1600000
        k(    6) = (   0.2000000   0.3464102   0.0000000), wk =   0.1600000
        k(    7) = (   0.2000000  -0.5773503   0.0000000), wk =   0.1600000
        k(    8) = (   0.2000000  -0.3464102   0.0000000), wk =   0.1600000
        k(    9) = (   0.4000000  -0.2309401   0.0000000), wk =   0.1600000
        k(   10) = (   0.4000000  -0.0000000   0.0000000), wk =   0.1600000
        k(   11) = (   0.4000000   0.2309401   0.0000000), wk =   0.1600000
        k(   12) = (   0.4000000  -0.6928203   0.0000000), wk =   0.1600000
        k(   13) = (   0.4000000  -0.4618802   0.0000000), wk =   0.1600000

     Check: negative core charge=   -0.000002

     Initial potential from superposition of free atoms

     starting charge  374.99374, renormalised to  375.00000

     negative rho (up, down):  1.167E-02 0.000E+00

     %%%%%%%%%%%%%%%%%%%%%%%%%%%%%%%%%%%%%%%%%%%%%%%%%%%%%%%%%%%%%%%%%%%%%%%%
     %                                                                      %
     % You are using vdW-DF, which was implemented by the Thonhauser group. %
     % Please cite the following two papers that made this development      %
     % possible and the two reviews that describe the various versions:     %
     %                                                                      %
     %   T. Thonhauser et al., PRL 115, 136402 (2015).                      %
     %   T. Thonhauser et al., PRB 76, 125112 (2007).                       %
     %   K. Berland et al., Rep. Prog. Phys. 78, 066501 (2015).             %
     %   D.C. Langreth et al., J. Phys.: Condens. Matter 21, 084203 (2009). %
     %                                                                      %
     %                                                                      %
     % If you are calculating the stress with vdW-DF, please also cite:     %
     %                                                                      %
     %   R. Sabatini et al., J. Phys.: Condens. Matter 24, 424209 (2012).   %
     %                                                                      %
     %%%%%%%%%%%%%%%%%%%%%%%%%%%%%%%%%%%%%%%%%%%%%%%%%%%%%%%%%%%%%%%%%%%%%%%%

     Starting wfcs are  339 randomized atomic wfcs
     Checking if some PAW data can be deallocated...

     Self-consistent Calculation

     iteration #  1     ecut=    60.00 Ry     beta= 0.70
     Davidson diagonalization with overlap
     ethr =  1.00E-02,  avg # of iterations =  2.2

[...]

     total energy              =  -27814.07210906 Ry
     estimated scf accuracy    <       4.83171134 Ry

[...]

     iteration #  4     ecut=    60.00 Ry     beta= 0.70
     Davidson diagonalization with overlap
     c_bands:  1 eigenvalues not converged
     c_bands:  1 eigenvalues not converged
     ethr =  1.29E-04,  avg # of iterations =  8.8

[...]

     iteration #  7     ecut=    60.00 Ry     beta= 0.70
     Davidson diagonalization with overlap
     c_bands:  2 eigenvalues not converged
     c_bands:  2 eigenvalues not converged
     c_bands:  2 eigenvalues not converged
     c_bands:  2 eigenvalues not converged
     c_bands:  1 eigenvalues not converged
     ethr =  4.77E-06,  avg # of iterations = 15.2

[...]

     total energy              =  -27814.86723371 Ry
     estimated scf accuracy    <       0.00000326 Ry

     iteration # 20     ecut=    60.00 Ry     beta= 0.70
     Davidson diagonalization with overlap
     ethr =  8.70E-10,  avg # of iterations =  4.5

[...]

     End of self-consistent calculation

          k = 0.0000 0.0000 0.0000 ( 91845 PWs)   bands (ev):

   -13.7984 -10.6363  -7.3276  -6.8297  -6.0331  -5.5720  -4.6354  -4.5659
    -4.4851  -4.4770  -4.4717  -4.4564  -4.4313  -4.4179  -4.2752  -3.9357
    -3.9294  -3.9185  -3.9118  -3.9075  -3.8956  -3.5650  -3.4932  -3.4666
    -3.4628  -3.4582  -3.4382  -3.4015  -3.2822  -3.2619  -3.2303  -3.2274
    -3.2188  -3.1583  -3.0861  -3.0607  -3.0315  -3.0234  -3.0181  -2.9971
    -2.9927  -2.9830  -2.9539  -2.9472  -2.9143  -2.8447  -2.7742  -2.6851
    -2.4732  -2.3943  -2.3717  -2.3649  -2.3393  -2.3185  -2.3178  -2.2852
    -2.2589  -2.1497  -2.1209  -2.1129  -1.9999  -1.8911  -1.7012  -1.6207
    -1.5973  -1.5767  -1.5749  -1.4883  -1.4840  -1.4785  -1.4330  -1.3824
    -1.3811  -1.3736  -1.3664  -1.3505  -1.3463  -1.3262  -1.3142  -1.2952
    -1.2924  -1.2685  -1.2460  -1.2227  -1.1750  -1.1703  -1.1644  -1.1534
    -1.1027  -1.0109  -1.0046  -0.9893  -0.9734  -0.9700  -0.9370  -0.9312
    -0.9246  -0.9174  -0.8858  -0.8618  -0.8498  -0.8335  -0.8279  -0.7290
    -0.7217  -0.7147  -0.6803  -0.6801  -0.5697  -0.5535  -0.5469  -0.5258
    -0.4780  -0.4643  -0.2665  -0.1539  -0.1078  -0.1001  -0.0785  -0.0585
    -0.0556  -0.0354  -0.0158   0.0173   0.0232   0.0727   0.1200   0.1268
     0.1430   0.2109   0.2216   0.2671   0.2712   0.3136   0.3385   0.3481
     0.4341   0.4536   0.4558   0.4745   0.4777   0.5965   0.6290   0.6615
     0.6929   0.7067   0.7207   0.7576   0.7833   0.9406   0.9406   0.9586
     0.9908   1.0017   1.0233   1.0254   1.0508   1.1112   1.1233   1.1329
     1.1476   1.1484   1.1615   1.1724   1.1820   1.1912   1.2075   1.2093
     1.2603   1.2662   1.2703   1.2799   1.2935   1.3638   1.3724   1.3814
     1.3931   1.3962   1.4061   1.4178   1.4536   1.4598   1.5199   1.5257
     1.5283   1.5374   1.5547   1.5631   1.5734   1.6137   1.6406   1.6417
     1.6781   1.6833   1.8187   1.8425   1.9046   1.9384   1.9692   1.9692
     1.9798   1.9957   2.1723   2.2722   2.5521   2.7488   2.8240   2.8528
     2.8983   3.0811   3.8080   4.3497   5.0652   5.1333   5.1550   5.1801
     5.6015   5.8912   6.3930   6.5093   6.5516   6.7583   6.7746   6.7829
     6.7964   6.8278

[...]

          k = 0.4000-0.4619 0.0000 ( 91730 PWs)   bands (ev):

   -13.7982 -10.6372  -7.2887  -6.0535  -5.9258  -5.8440  -5.3127  -4.7092
    -4.6804  -4.4750  -4.1344  -4.1217  -4.0097  -3.9672  -3.8794  -3.8429
    -3.7740  -3.7381  -3.6867  -3.6791  -3.6691  -3.6426  -3.6067  -3.5844
    -3.5764  -3.5580  -3.4372  -3.4169  -3.3945  -3.3793  -3.3414  -3.2644
    -3.2157  -3.1924  -3.1415  -3.1050  -3.0478  -3.0217  -3.0088  -2.9796
    -2.9387  -2.9202  -2.8597  -2.8352  -2.7916  -2.6422  -2.5835  -2.5658
    -2.4727  -2.4407  -2.4264  -2.3891  -2.3526  -2.2636  -2.2327  -2.2066
    -2.1704  -2.1417  -2.1125  -2.0861  -2.0406  -2.0276  -1.9824  -1.9770
    -1.9641  -1.9225  -1.9095  -1.8971  -1.8625  -1.8051  -1.7378  -1.7193
    -1.6828  -1.6104  -1.6017  -1.5389  -1.5103  -1.5019  -1.4747  -1.4554
    -1.4262  -1.4164  -1.3805  -1.3378  -1.3283  -1.2974  -1.2703  -1.2547
    -1.2026  -1.1790  -1.1159  -1.1020  -1.0966  -1.0094  -0.9661  -0.9523
    -0.9241  -0.9139  -0.8821  -0.8570  -0.8439  -0.8190  -0.7973  -0.7844
    -0.7779  -0.7579  -0.7200  -0.7036  -0.6882  -0.6678  -0.6493  -0.6334
    -0.6304  -0.6063  -0.5778  -0.5621  -0.4342  -0.3998  -0.3144  -0.2945
    -0.2672  -0.2424  -0.1666  -0.1566  -0.1406  -0.0908  -0.0635  -0.0363
    -0.0315   0.0120   0.0290   0.0572   0.0725   0.1234   0.1571   0.2230
     0.2301   0.2846   0.3483   0.4106   0.4238   0.4254   0.4598   0.5000
     0.5542   0.5865   0.6244   0.6407   0.6656   0.6879   0.7000   0.7235
     0.7846   0.8167   0.8430   0.8700   0.8829   0.9074   0.9465   1.0137
     1.0249   1.0505   1.1533   1.2057   1.2514   1.3297   1.3467   1.3821
     1.4280   1.4626   1.4726   1.5489   1.5605   1.6333   1.6611   1.6865
     1.6987   1.7079   1.7330   1.7707   1.8305   1.8422   1.8565   1.8860
     1.8968   1.9007   1.9122   1.9901   2.0720   2.0741   2.1009   2.1273
     2.1383   2.1839   2.1978   2.3094   2.4227   2.5627   2.8652   3.0604
     3.2805   3.2993   3.4135   3.5741   3.6710   3.6971   3.7339   4.2282
     4.2796   4.3638   4.4937   4.6798   4.7881   4.8766   4.9566   4.9930
     5.0744   5.1822   5.2343   5.6198   5.6872   5.7908   5.9007   6.2562
     6.3467   6.3988

     the Fermi energy is     1.9146 ev

!    total energy              =  -27814.86723465 Ry

     total all-electron energy =  -1326874.924934 Ry
     estimated scf accuracy    <       0.00000079 Ry
     smearing contrib. (-TS)   =       0.00105471 Ry
     internal energy E=F+TS    =  -27814.86828936 Ry

     The total energy is F=E-TS. E is the sum of the following terms:
     one-electron contribution =  -28778.28611767 Ry
     hartree contribution      =   14692.97053614 Ry
     xc contribution           =    -906.56452986 Ry
     ewald contribution        =   12670.64529392 Ry
     one-center paw contrib.   =  -25493.63347189 Ry

     convergence has been achieved in  20 iterations

[...]

     Forces acting on atoms (cartesian axes, Ry/au):

     atom    1 type  1   force =     0.00070779   -0.00071435   -0.00794854
     atom    2 type  1   force =    -0.00124962    0.00062419   -0.00372924
     atom    3 type  1   force =     0.00048589    0.00023656   -0.00310141
     atom    4 type  1   force =     0.00083548   -0.00008447   -0.00799056
     atom    5 type  1   force =    -0.00129440   -0.00002895   -0.00381350
     atom    6 type  1   force =     0.00093045   -0.00053729   -0.00317435
     atom    7 type  1   force =    -0.00019661    0.00006602   -0.00398327
     atom    8 type  1   force =    -0.00057409    0.00107867   -0.00380367
     atom    9 type  1   force =    -0.00004522   -0.00059143   -0.00317601
     atom   10 type  1   force =     0.00028222   -0.00024131   -0.00356351
     atom   11 type  1   force =     0.00043287    0.00200203    0.00965872
     atom   12 type  1   force =    -0.00039070    0.00088052   -0.00074360
     atom   13 type  1   force =     0.00123982   -0.00230868    0.00346094
     atom   14 type  1   force =     0.00040063   -0.00003853    0.01472131
     atom   15 type  1   force =    -0.00069801   -0.00001718   -0.00077305
     atom   16 type  1   force =     0.00253275    0.00032986    0.00386922
     atom   17 type  1   force =    -0.00149446   -0.00107895    0.00957371
     atom   18 type  1   force =    -0.00012025    0.00022390    0.00064040
     atom   19 type  1   force =     0.00018121    0.00012270   -0.00007515
     atom   20 type  1   force =     0.00055670    0.00050355   -0.00031036
     atom   21 type  1   force =    -0.00009301   -0.00032623   -0.00012126
     atom   22 type  1   force =    -0.00045514    0.00015485   -0.00001395
     atom   23 type  1   force =     0.00053809    0.00001311    0.00004344
     atom   24 type  1   force =    -0.00061928   -0.00036190   -0.00031413
     atom   25 type  1   force =     0.00012708   -0.00043473   -0.00001802
     atom   26 type  1   force =    -0.00029484   -0.00007855   -0.00009361
     atom   27 type  1   force =    -0.00021339    0.00055734   -0.00046385
     atom   28 type  1   force =     0.00000001   -0.00002907    0.00042886
     atom   29 type  1   force =     0.00008693   -0.00044700    0.00030374
     atom   30 type  1   force =     0.00000553    0.00052009    0.00059358
     atom   31 type  1   force =     0.00066583   -0.00019359    0.00069190
     atom   32 type  1   force =    -0.00049217    0.00039029   -0.00002352
     atom   33 type  1   force =    -0.00020665   -0.00005082    0.00004941
     atom   34 type  1   force =     0.00040716   -0.00033790    0.00000988
     atom   35 type  1   force =     0.00049153    0.00020081    0.00007620
     atom   36 type  1   force =    -0.00065363    0.00024491    0.00066612
     atom   37 type  2   force =    -0.00059533   -0.00155070    0.00020934
     atom   38 type  2   force =    -0.00191199    0.00113513    0.00079361
     atom   39 type  2   force =     0.00295533    0.00449084    0.00609277
     atom   40 type  3   force =     0.00021702   -0.00045306    0.00000163
     atom   41 type  3   force =     0.00003773   -0.00005567    0.00034599
     atom   42 type  3   force =    -0.00251924   -0.00381500   -0.00499617

     Total force =     0.011292     Total SCF correction =     0.001691
     SCF correction compared to forces is large: reduce conv_thr to get better values

[...]

     negative rho (up, down):  1.308E-02 0.000E+00

     negative rho (up, down):  1.308E-02 0.000E+00
 BEEFens 2000 ensemble energies
             -0.607023818102737E+02
             -0.361421854891668E+01
             -0.158359107830754E+02
              0.429383512932994E+02
             -0.221131574229422E+02
             -0.205260633110699E+02
             -0.352427384417632E+02
             -0.865185347975597E+02
             -0.464948837296377E+02
             -0.472432600190195E+02
             -0.369378984746885E+02
              0.228831315497010E+01
              0.408661151399792E+01
              0.760006374219472E+01
              0.265747025016049E+01
              0.474983134823606E+02
             -0.208699728152698E+02
             -0.230026316209180E+02
              0.193213594154225E+02
             -0.112395732069716E+03
              0.536407226039060E+02
             -0.289677618897172E+02
             -0.333824301357673E+01
             -0.113973437479806E+02
             -0.882309759686723E+01
             -0.462904319941123E+01
              0.882809818813381E+02
             -0.187280235949139E+02
             -0.900060548919305E+01
             -0.518658422255351E+02
              0.815339216851703E+02
             -0.187078829219268E+02
             -0.375025686659895E+02
              0.249134483546165E+02
             -0.283599973966329E+01
              0.164378360521969E+02
             -0.483867908104855E+01
              0.107879564836747E+02
              0.288719103410642E+02
             -0.103266693947748E+03
              0.558410652997202E+02
              0.142447344991091E+02
             -0.173491395605470E+01
             -0.361500101569057E+02
              0.123210841413679E+02
             -0.146783615357974E+02
              0.398569289446848E+02
              0.364795823092954E+02
             -0.307883103844696E+02
             -0.275240270529265E+02
             -0.328543402398614E+02
             -0.352257748919578E+02
              0.136641630995078E+02
             -0.490925432813416E+02
              0.115635739646772E+02
              0.623275763599673E+02
              0.635627970982097E+02
              0.355773522517596E+02
              0.154029941349535E+02
              0.270700184827263E+02
[...]
             -0.706304134597559E+02
             -0.885862023849768E+00
             -0.247386707785206E+01
             -0.882831000238605E+01
             -0.179387512720604E+01
             -0.652795320209616E+02
             -0.210422556171270E+02
              0.540661778602574E+01
              0.901073395527644E+01
              0.468919133097710E+02
             -0.397861124660614E+02
              0.657017356896413E+02
             -0.425210090804247E+02
              0.210515999230494E+02
              0.350408530628640E+02

 BEEF-vdW xc energy contributions
           1 :   -782.778140721387
           2 :    719.135089894033
           3 :   -608.866392878701
           4 :    478.945052398173
           5 :   -356.875395619395
           6 :    262.549423883621
           7 :   -203.693327484682
           8 :    175.809132854380
           9 :   -166.192440840666
          10 :    160.117142983592
          11 :   -146.660403268044
          12 :    121.969879703439
          13 :   -89.1243273829318
          14 :    55.2127746028060
          15 :   -27.3169807974666
          16 :    9.21785437685128
          17 :  -0.105520579311587
          18 :   -4.45235697770522
          19 :    9.99791241520575
          20 :   -20.4533577305262
          21 :    36.4265620460613
          22 :   -55.2222036282000
          23 :    72.3812773458637
          24 :   -83.9075930688086
          25 :    88.0901847875911
          26 :   -86.1195180647227
          27 :    81.3045977998828
          28 :   -77.3683576947423
          29 :    76.6844641621744
          30 :   -79.2821167314391
          31 :   -85.8821870760947
          32 :   -65.8277267599877

     Writing output data file ./pwscf.save/

     General routines

     Parallel routines

   This run was terminated on:  14:16:39   4Jan2023

   JOB DONE.