     Program PWSCF v.6.7MaX starts on  4Jan2023 at 10:18: 2

     Reading input from chch2c-bi-ensemble.in
Warning: card &CELL ignored
Warning: card / ignored

     Current dimensions of program PWSCF are:
     Max number of different atomic species (ntypx) = 10
     Max number of k-points (npk) =  40000
     Max angular momentum in pseudopotentials (lmaxx) =  3
     file Pt.pbe-n-kjpaw_psl.1.0.0.UPF: wavefunction(s)  6S 5D renormalized
     file C.pbe-n-kjpaw_psl.1.0.0.UPF: wavefunction(s)  2S 2P renormalized
     file H.pbe-kjpaw_psl.1.0.0.UPF: wavefunction(s)  1S renormalized

     IMPORTANT: XC functional enforced from input :
     Exchange-correlation= BEEF-VDW
                           (   1   4  43  14   2   0   0)
     Any further DFT definition will be discarded
     Please, verify this is what you really want

     Subspace diagonalization in iterative solution of the eigenvalue problem:
     a serial algorithm will be used

     bravais-lattice index     =            0
     lattice parameter (alat)  =      16.0349  a.u.
     unit-cell volume          =   11400.2419 (a.u.)^3
     number of atoms/cell      =           42
     number of atomic types    =            3
     number of electrons       =       375.00
     number of Kohn-Sham states=          226
     kinetic-energy cutoff     =      60.0000  Ry
     charge density cutoff     =     240.0000  Ry
     scf convergence threshold =      1.0E-06
     mixing beta               =       0.7000
     number of iterations used =            8  local-TF  mixing
     Exchange-correlation= BEEF-VDW
                           (   1   4  43  14   2   0   0)

     celldm(1)=  16.034858  celldm(2)=   0.000000  celldm(3)=   0.000000
     celldm(4)=   0.000000  celldm(5)=   0.000000  celldm(6)=   0.000000

     crystal axes: (cart. coord. in units of alat)
               a(1) = (   1.000000   0.000000   0.000000 )
               a(2) = (   0.500000   0.866025   0.000000 )
               a(3) = (   0.000000   0.000000   3.192920 )

     reciprocal axes: (cart. coord. in units 2 pi/alat)
               b(1) = (  1.000000 -0.577350  0.000000 )
               b(2) = (  0.000000  1.154701  0.000000 )
               b(3) = (  0.000000  0.000000  0.313193 )

     PseudoPot. # 1 for Pt read from file:
     /users/bkreitz1/quantum-espresso/potentials/Pt.pbe-n-kjpaw_psl.1.0.0.UPF
     MD5 check sum: 04dc8a03c51ece93fc7b5889c2958091
     Pseudo is Projector augmented-wave + core cor, Zval = 10.0
     Generated using 'atomic' code by A. Dal Corso  v.6.7MaX
     Shape of augmentation charge: PSQ
     Using radial grid of 1277 points,  6 beta functions with:
                l(1) =   0
                l(2) =   0
                l(3) =   1
                l(4) =   1
                l(5) =   2
                l(6) =   2
     Q(r) pseudized with 0 coefficients

     PseudoPot. # 2 for C  read from file:
     /users/bkreitz1/quantum-espresso/potentials/C.pbe-n-kjpaw_psl.1.0.0.UPF
     MD5 check sum: a169b0ebad56f5ec0d79c4633f80bf22
     Pseudo is Projector augmented-wave + core cor, Zval =  4.0
     Generated using 'atomic' code by A. Dal Corso  v.6.7MaX
     Shape of augmentation charge: PSQ
     Using radial grid of 1073 points,  4 beta functions with:
                l(1) =   0
                l(2) =   0
                l(3) =   1
                l(4) =   1
     Q(r) pseudized with 0 coefficients

     PseudoPot. # 3 for H  read from file:
     /users/bkreitz1/quantum-espresso/potentials/H.pbe-kjpaw_psl.1.0.0.UPF
     MD5 check sum: ae98473e6dc62675f0d0baffdab24f65
     Pseudo is Projector augmented-wave, Zval =  1.0
     Generated using 'atomic' code by A. Dal Corso  v.6.7MaX
     Shape of augmentation charge: PSQ
     Using radial grid of  929 points,  2 beta functions with:
                l(1) =   0
                l(2) =   0
     Q(r) pseudized with 0 coefficients

     atomic species   valence    mass     pseudopotential
        Pt            10.00   195.08400     Pt( 1.00)
        C              4.00    12.01100     C ( 1.00)
        H              1.00     1.00800     H ( 1.00)

     No symmetry found

   Cartesian axes

     site n.     atom                  positions (alat units)
         1           Pt  tau(   1) = (   0.0000000   0.0000000   1.0017346  )
         2           Pt  tau(   2) = (   0.3333333   0.0000000   1.0017346  )
         3           Pt  tau(   3) = (   0.6666667   0.0000000   1.0017346  )
         4           Pt  tau(   4) = (   0.1666667   0.2886751   1.0017346  )
         5           Pt  tau(   5) = (   0.5000000   0.2886751   1.0017346  )
         6           Pt  tau(   6) = (   0.8333333   0.2886751   1.0017346  )
         7           Pt  tau(   7) = (   0.3333333   0.5773503   1.0017346  )
         8           Pt  tau(   8) = (   0.6666667   0.5773503   1.0017346  )
         9           Pt  tau(   9) = (   1.0000000   0.5773503   1.0017346  )
        10           Pt  tau(  10) = (   0.1666667   0.0962250   1.2739001  )
        11           Pt  tau(  11) = (   0.5000000   0.0962250   1.2739001  )
        12           Pt  tau(  12) = (   0.8333333   0.0962250   1.2739001  )
        13           Pt  tau(  13) = (   0.3333333   0.3849002   1.2739001  )
        14           Pt  tau(  14) = (   0.6666667   0.3849002   1.2739001  )
        15           Pt  tau(  15) = (   1.0000000   0.3849002   1.2739001  )
        16           Pt  tau(  16) = (   0.5000000   0.6735753   1.2739001  )
        17           Pt  tau(  17) = (   0.8333333   0.6735753   1.2739001  )
        18           Pt  tau(  18) = (   1.1666667   0.6735753   1.2739001  )
        19           Pt  tau(  19) = (   0.0015295   0.1944500   1.5491157  )
        20           Pt  tau(  20) = (   0.3400229   0.1946793   1.5476641  )
        21           Pt  tau(  21) = (   0.6686056   0.1914472   1.5476571  )
        22           Pt  tau(  22) = (   0.1666013   0.4814553   1.5489653  )
        23           Pt  tau(  23) = (   0.5020687   0.4784073   1.5471272  )
        24           Pt  tau(  24) = (   0.8366684   0.4791001   1.5449900  )
        25           Pt  tau(  25) = (   0.3369024   0.7677332   1.5413492  )
        26           Pt  tau(  26) = (   0.6698269   0.7714139   1.5398233  )
        27           Pt  tau(  27) = (   1.0018853   0.7656947   1.5450704  )
        28           Pt  tau(  28) = (   0.0073859  -0.0035919   1.8156713  )
        29           Pt  tau(  29) = (   0.3406522   0.0018451   1.8161974  )
        30           Pt  tau(  30) = (   0.6707667  -0.0143784   1.8123144  )
        31           Pt  tau(  31) = (   0.1796568   0.2841049   1.8205751  )
        32           Pt  tau(  32) = (   0.5099645   0.2861154   1.8559447  )
        33           Pt  tau(  33) = (   0.8374067   0.2714390   1.8370016  )
        34           Pt  tau(  34) = (   0.3381319   0.5726262   1.8205631  )
        35           Pt  tau(  35) = (   0.6693611   0.5828861   1.8130890  )
        36           Pt  tau(  36) = (   1.0093745   0.5717357   1.8494543  )
        37           C   tau(  37) = (   0.6776941   0.2762721   2.0285919  )
        38           C   tau(  38) = (   0.7500443   0.4226285   2.1081699  )
        39           C   tau(  39) = (   0.8236729   0.4870352   1.9594230  )
        40           H   tau(  40) = (   0.6699480   0.1710192   2.1019471  )
        41           H   tau(  41) = (   0.6658509   0.5029364   2.1644888  )
        42           H   tau(  42) = (   0.8385229   0.3869649   2.1967178  )

     number of k points=    13  Marzari-Vanderbilt smearing, width (Ry)=  0.0200
                       cart. coord. in units 2pi/alat
        k(    1) = (   0.0000000   0.0000000   0.0000000), wk =   0.0800000
        k(    2) = (   0.0000000   0.2309401   0.0000000), wk =   0.1600000
        k(    3) = (   0.0000000   0.4618802   0.0000000), wk =   0.1600000
        k(    4) = (   0.2000000  -0.1154701   0.0000000), wk =   0.1600000
        k(    5) = (   0.2000000   0.1154701   0.0000000), wk =   0.1600000
        k(    6) = (   0.2000000   0.3464102   0.0000000), wk =   0.1600000
        k(    7) = (   0.2000000  -0.5773503   0.0000000), wk =   0.1600000
        k(    8) = (   0.2000000  -0.3464102   0.0000000), wk =   0.1600000
        k(    9) = (   0.4000000  -0.2309401   0.0000000), wk =   0.1600000
        k(   10) = (   0.4000000  -0.0000000   0.0000000), wk =   0.1600000
        k(   11) = (   0.4000000   0.2309401   0.0000000), wk =   0.1600000
        k(   12) = (   0.4000000  -0.6928203   0.0000000), wk =   0.1600000
        k(   13) = (   0.4000000  -0.4618802   0.0000000), wk =   0.1600000

     Check: negative core charge=   -0.000002

     Initial potential from superposition of free atoms

     starting charge  374.99374, renormalised to  375.00000

     negative rho (up, down):  1.155E-02 0.000E+00

     %%%%%%%%%%%%%%%%%%%%%%%%%%%%%%%%%%%%%%%%%%%%%%%%%%%%%%%%%%%%%%%%%%%%%%%%
     %                                                                      %
     % You are using vdW-DF, which was implemented by the Thonhauser group. %
     % Please cite the following two papers that made this development      %
     % possible and the two reviews that describe the various versions:     %
     %                                                                      %
     %   T. Thonhauser et al., PRL 115, 136402 (2015).                      %
     %   T. Thonhauser et al., PRB 76, 125112 (2007).                       %
     %   K. Berland et al., Rep. Prog. Phys. 78, 066501 (2015).             %
     %   D.C. Langreth et al., J. Phys.: Condens. Matter 21, 084203 (2009). %
     %                                                                      %
     %                                                                      %
     % If you are calculating the stress with vdW-DF, please also cite:     %
     %                                                                      %
     %   R. Sabatini et al., J. Phys.: Condens. Matter 24, 424209 (2012).   %
     %                                                                      %
     %%%%%%%%%%%%%%%%%%%%%%%%%%%%%%%%%%%%%%%%%%%%%%%%%%%%%%%%%%%%%%%%%%%%%%%%

     Starting wfcs are  339 randomized atomic wfcs
     Checking if some PAW data can be deallocated...

     Self-consistent Calculation

     iteration #  1     ecut=    60.00 Ry     beta= 0.70
     Davidson diagonalization with overlap
     ethr =  1.00E-02,  avg # of iterations =  2.5

     Threshold (ethr) on eigenvalues was too large:
     Diagonalizing with lowered threshold

     Davidson diagonalization with overlap
     ethr =  8.10E-04,  avg # of iterations =  3.1

[...]

     total energy              =  -27814.46436204 Ry
     estimated scf accuracy    <       3.34592463 Ry

[...]

     iteration #  4     ecut=    60.00 Ry     beta= 0.70
     Davidson diagonalization with overlap
     c_bands:  1 eigenvalues not converged
     ethr =  1.74E-04,  avg # of iterations =  7.2

[...]

     iteration # 11     ecut=    60.00 Ry     beta= 0.70
     Davidson diagonalization with overlap
     c_bands:  1 eigenvalues not converged
     ethr =  4.39E-07,  avg # of iterations =  6.0

[...]

     total energy              =  -27814.84657662 Ry
     estimated scf accuracy    <       0.00000206 Ry

     iteration # 20     ecut=    60.00 Ry     beta= 0.70
     Davidson diagonalization with overlap
     ethr =  5.49E-10,  avg # of iterations =  1.0

[...]

     End of self-consistent calculation

          k = 0.0000 0.0000 0.0000 ( 89551 PWs)   bands (ev):

   -13.9942  -9.9569  -8.4989  -6.6462  -5.8058  -5.4099  -5.1868  -4.4441
    -4.3914  -4.3057  -4.2941  -4.2691  -4.2420  -4.2304  -4.1696  -4.1454
    -3.8209  -3.7506  -3.7338  -3.7125  -3.7061  -3.6763  -3.5287  -3.4732
    -3.3851  -3.2815  -3.2587  -3.1566  -3.1229  -3.0915  -3.0758  -3.0474
    -3.0368  -2.9999  -2.9622  -2.9281  -2.9140  -2.8780  -2.8585  -2.8097
    -2.7780  -2.7665  -2.7636  -2.7365  -2.6960  -2.5255  -2.4670  -2.4053
    -2.3386  -2.3008  -2.2233  -2.2149  -2.2036  -2.1691  -2.1391  -2.0797
    -2.0384  -1.9920  -1.9562  -1.9419  -1.9018  -1.7897  -1.6386  -1.5807
    -1.5176  -1.4691  -1.4413  -1.4250  -1.3885  -1.3635  -1.3437  -1.2632
    -1.2472  -1.2365  -1.2286  -1.2054  -1.1987  -1.1723  -1.1624  -1.1526
    -1.1259  -1.1111  -1.1069  -1.0934  -1.0754  -1.0611  -1.0400  -1.0326
    -1.0047  -0.9856  -0.9486  -0.9358  -0.8426  -0.8263  -0.7870  -0.7600
    -0.7527  -0.7139  -0.7007  -0.6929  -0.6640  -0.6521  -0.6196  -0.5764
    -0.5697  -0.5381  -0.5291  -0.5275  -0.5154  -0.4680  -0.4250  -0.4049
    -0.3646  -0.3188  -0.2740  -0.2038  -0.1542  -0.0782  -0.0374   0.0279
     0.0605   0.1092   0.1454   0.2095   0.2417   0.2578   0.2963   0.2999
     0.3216   0.3389   0.3433   0.3766   0.3895   0.3982   0.4492   0.4969
     0.6013   0.6118   0.6312   0.6435   0.7155   0.7296   0.7815   0.8287
     0.8445   0.8739   0.8859   0.8942   0.9335   0.9579   0.9953   1.0176
     1.0764   1.1113   1.1153   1.1708   1.1810   1.1909   1.2254   1.2676
     1.2705   1.2761   1.2975   1.3106   1.3192   1.3379   1.3506   1.3570
     1.3655   1.3817   1.3867   1.4325   1.4552   1.4907   1.5026   1.5276
     1.5406   1.5523   1.5834   1.6213   1.6408   1.6477   1.6623   1.6746
     1.6888   1.6953   1.7416   1.7492   1.7578   1.7813   1.7898   1.8426
     1.8476   1.9595   1.9717   2.0259   2.0437   2.0882   2.1055   2.1235
     2.1410   2.3633   2.4764   2.6045   2.6982   2.9030   2.9632   2.9928
     3.5838   3.9956   4.2060   4.8317   5.0137   5.2268   5.2683   5.5107
     5.7887   5.9770   6.0589   6.7017   6.8302   6.9132   6.9444   6.9919
     7.0365   7.0665

[...]

          k = 0.4000-0.4619 0.0000 ( 89458 PWs)   bands (ev):

   -13.9932  -9.9569  -8.4678  -5.8197  -5.7668  -5.6409  -5.2229  -5.0902
    -4.5256  -4.4265  -4.1939  -4.0380  -3.9181  -3.8312  -3.8106  -3.7687
    -3.6744  -3.6259  -3.5578  -3.5395  -3.5231  -3.4509  -3.4411  -3.4280
    -3.4079  -3.3639  -3.3321  -3.2906  -3.2552  -3.2202  -3.1939  -3.1832
    -3.1234  -3.0930  -2.9910  -2.9751  -2.9190  -2.8725  -2.8333  -2.7936
    -2.7797  -2.7266  -2.6538  -2.6073  -2.5676  -2.4857  -2.4137  -2.4028
    -2.3783  -2.3331  -2.3143  -2.2463  -2.1615  -2.1339  -2.0891  -2.0738
    -2.0340  -2.0077  -1.9747  -1.9432  -1.9273  -1.8723  -1.8637  -1.8512
    -1.8081  -1.7761  -1.7432  -1.7254  -1.7033  -1.6581  -1.6306  -1.6055
    -1.5595  -1.5196  -1.4706  -1.4469  -1.4143  -1.3887  -1.3436  -1.3268
    -1.2915  -1.2730  -1.2368  -1.2086  -1.1556  -1.1356  -1.1157  -1.0956
    -1.0442  -1.0015  -0.9715  -0.9570  -0.9451  -0.9313  -0.9041  -0.8729
    -0.7797  -0.7764  -0.7340  -0.7076  -0.6903  -0.6533  -0.6394  -0.6307
    -0.6246  -0.5956  -0.5800  -0.5396  -0.5217  -0.4926  -0.4800  -0.4690
    -0.4554  -0.4259  -0.3998  -0.3571  -0.3146  -0.2505  -0.1941  -0.1797
    -0.1164  -0.0446  -0.0280  -0.0175   0.0199   0.0274   0.0724   0.1055
     0.1298   0.1406   0.1678   0.2193   0.2469   0.2652   0.3036   0.3449
     0.3916   0.4263   0.4577   0.4880   0.5415   0.5853   0.6118   0.6870
     0.7055   0.7383   0.7517   0.7700   0.7999   0.8153   0.8538   0.8896
     0.9247   0.9369   0.9674   0.9999   1.0386   1.0700   1.0920   1.1267
     1.2248   1.2541   1.2978   1.3600   1.4166   1.4409   1.4898   1.5279
     1.5953   1.6062   1.6698   1.6982   1.7402   1.7676   1.7808   1.8168
     1.8381   1.8473   1.8921   1.9384   1.9550   1.9761   1.9847   2.0060
     2.0430   2.0693   2.1079   2.1561   2.1923   2.2382   2.2679   2.2725
     2.2987   2.3351   2.3589   2.5314   2.7330   2.9226   3.0853   3.1379
     3.4035   3.5106   3.6185   3.7418   3.8504   3.9016   4.0372   4.1775
     4.3381   4.5038   4.5807   4.6523   4.9425   5.0219   5.1221   5.2644
     5.3432   5.3642   5.5111   5.5800   5.7554   5.9722   6.2208   6.4394
     6.5064   6.5670

     the Fermi energy is     2.0683 ev

!    total energy              =  -27814.84657598 Ry

     total all-electron energy =  -1326874.904275 Ry
     estimated scf accuracy    <       0.00000061 Ry
     smearing contrib. (-TS)   =       0.00358029 Ry
     internal energy E=F+TS    =  -27814.85015628 Ry

     The total energy is F=E-TS. E is the sum of the following terms:
     one-electron contribution =  -27388.33189838 Ry
     hartree contribution      =   13999.85717783 Ry
     xc contribution           =    -906.64352219 Ry
     ewald contribution        =   11973.91666680 Ry
     one-center paw contrib.   =  -25493.64858033 Ry

     convergence has been achieved in  20 iterations

[...]

     Forces acting on atoms (cartesian axes, Ry/au):

     atom    1 type  1   force =    -0.00228829    0.00046449   -0.00543927
     atom    2 type  1   force =     0.00158289   -0.00076853   -0.00534007
     atom    3 type  1   force =    -0.00085045    0.00023171   -0.00515695
     atom    4 type  1   force =    -0.00108798    0.00033856   -0.00325779
     atom    5 type  1   force =     0.00110699   -0.00009129   -0.00428114
     atom    6 type  1   force =    -0.00026463   -0.00051068   -0.00425079
     atom    7 type  1   force =    -0.00042056    0.00006221   -0.00360571
     atom    8 type  1   force =    -0.00045517    0.00053143   -0.00400679
     atom    9 type  1   force =    -0.00019776    0.00071801   -0.00445192
     atom   10 type  1   force =     0.00104000    0.00508456   -0.00471317
     atom   11 type  1   force =    -0.00114748    0.00168555    0.00471766
     atom   12 type  1   force =     0.00326375    0.00255082    0.00535806
     atom   13 type  1   force =    -0.00046250   -0.00218180    0.00749390
     atom   14 type  1   force =    -0.00128918   -0.00147748    0.00842700
     atom   15 type  1   force =     0.00328992   -0.00198527    0.01100944
     atom   16 type  1   force =     0.00186908   -0.00103526   -0.00040342
     atom   17 type  1   force =     0.00199108    0.00121924    0.00174373
     atom   18 type  1   force =    -0.00026431   -0.00249314    0.00754884
     atom   19 type  1   force =     0.00019448   -0.00008153   -0.00052066
     atom   20 type  1   force =    -0.00045548   -0.00021407    0.00001761
     atom   21 type  1   force =    -0.00043400   -0.00003795   -0.00059014
     atom   22 type  1   force =     0.00012469   -0.00026213   -0.00015055
     atom   23 type  1   force =     0.00012383    0.00018708    0.00019154
     atom   24 type  1   force =     0.00060157   -0.00034038   -0.00001743
     atom   25 type  1   force =     0.00027143    0.00003663    0.00031995
     atom   26 type  1   force =     0.00022554    0.00003650    0.00010373
     atom   27 type  1   force =    -0.00005697   -0.00013513   -0.00004126
     atom   28 type  1   force =     0.00024465    0.00010243    0.00010585
     atom   29 type  1   force =    -0.00005907    0.00001549    0.00049380
     atom   30 type  1   force =    -0.00007331   -0.00035261    0.00030302
     atom   31 type  1   force =     0.00019260    0.00007778    0.00020620
     atom   32 type  1   force =    -0.00024931    0.00032163   -0.00034928
     atom   33 type  1   force =    -0.00077296   -0.00005795    0.00026523
     atom   34 type  1   force =    -0.00010531   -0.00026599    0.00028252
     atom   35 type  1   force =     0.00015100   -0.00051614    0.00037323
     atom   36 type  1   force =    -0.00004124    0.00014591    0.00027057
     atom   37 type  2   force =    -0.00066951    0.00033377    0.00085624
     atom   38 type  2   force =     0.00374847   -0.00329547    0.00534116
     atom   39 type  2   force =    -0.00336186    0.00047291   -0.00019487
     atom   40 type  3   force =    -0.00002689    0.00030533   -0.00055218
     atom   41 type  3   force =     0.00035590   -0.00060654   -0.00105864
     atom   42 type  3   force =    -0.00534364    0.00178733   -0.00704725

     Total force =     0.012412     Total SCF correction =     0.002140
     SCF correction compared to forces is large: reduce conv_thr to get better values

[...]

     negative rho (up, down):  1.293E-02 0.000E+00

     negative rho (up, down):  1.293E-02 0.000E+00
 BEEFens 2000 ensemble energies
             -0.606704202278403E+02
             -0.362278015514417E+01
             -0.158419523140708E+02
              0.429524956882489E+02
             -0.221065579014652E+02
             -0.205276240936611E+02
             -0.352218339521565E+02
             -0.865104568885317E+02
             -0.465030586796615E+02
             -0.472928215201566E+02
             -0.369345468561134E+02
              0.224594065712515E+01
              0.407090503987413E+01
              0.761760844930041E+01
              0.266646754197146E+01
              0.474974267595488E+02
             -0.208921441218080E+02
             -0.230395334134417E+02
              0.193171154895484E+02
             -0.112371303818667E+03
              0.536357443269918E+02
             -0.289898013813880E+02
             -0.336297054530353E+01
             -0.114082006713504E+02
             -0.884571858861443E+01
             -0.466299655007549E+01
              0.882752129177658E+02
             -0.187028605715933E+02
             -0.901373479542031E+01
             -0.518517181534001E+02
              0.815770522259932E+02
             -0.187386078523522E+02
             -0.375248572675243E+02
              0.249308759211419E+02
             -0.284772723690526E+01
              0.164127839650598E+02
             -0.485324381063708E+01
              0.108011091864092E+02
              0.288163607511204E+02
             -0.103293830718663E+03
              0.558341692220116E+02
              0.142282340515980E+02
             -0.171258002729388E+01
             -0.361568230048939E+02
              0.123233084989031E+02
             -0.146623622766873E+02
              0.398669296733576E+02
              0.364817556696728E+02
             -0.308148975790172E+02
             -0.275311824173234E+02
             -0.328553289055154E+02
             -0.352017287948351E+02
              0.136037763667231E+02
             -0.491036165997334E+02
              0.115557294979516E+02
              0.622828237025761E+02
              0.635332163993271E+02
              0.355686264433113E+02
              0.154153979548140E+02
              0.270362391211848E+02
[...]
             -0.706166308554452E+02
             -0.908228707848025E+00
             -0.245265283590428E+01
             -0.883132560797162E+01
             -0.178882521912868E+01
             -0.652874030353602E+02
             -0.210872536356252E+02
              0.538102603594096E+01
              0.896821807746352E+01
              0.468894844336001E+02
             -0.397830911955671E+02
              0.657206849449070E+02
             -0.425308688375720E+02
              0.210292183394445E+02
              0.350409765397304E+02

 BEEF-vdW xc energy contributions
           1 :   -782.883434764932
           2 :    719.384803399677
           3 :   -609.295024819980
           4 :    479.477767610302
           5 :   -357.397287087276
           6 :    262.960683211310
           7 :   -203.922864037040
           8 :    175.807673054041
           9 :   -165.934635445022
          10 :    159.618897722017
          11 :   -145.995777018779
          12 :    121.268306512705
          13 :   -88.5402625223776
          14 :    54.8722395578964
          15 :   -27.2618838754287
          16 :    9.38119715595690
          17 :  -0.338644629363330
          18 :   -4.30708946613140
          19 :    10.0278971573046
          20 :   -20.6319160214026
          21 :    36.6297806381394
          22 :   -55.2971368403339
          23 :    72.2299730014460
          24 :   -83.5439301128858
          25 :    87.6371086298453
          26 :   -85.7461336140435
          27 :    81.1433661381025
          28 :   -77.4560086304415
          29 :    76.9476835649276
          30 :   -79.5755273412238
          31 :   -85.8929315975482
          32 :   -65.8773597999389

     Writing output data file ./pwscf.save/

     General routines

     Parallel routines

   This run was terminated on:  14:10:28   4Jan2023

   JOB DONE.