     Program PWSCF v.6.7MaX starts on  4Jan2023 at 10:12:41

     Reading input from chchch-tri-ensemble.in
Warning: card &CELL ignored
Warning: card / ignored

     Current dimensions of program PWSCF are:
     Max number of different atomic species (ntypx) = 10
     Max number of k-points (npk) =  40000
     Max angular momentum in pseudopotentials (lmaxx) =  3
     file Pt.pbe-n-kjpaw_psl.1.0.0.UPF: wavefunction(s)  6S 5D renormalized
     file C.pbe-n-kjpaw_psl.1.0.0.UPF: wavefunction(s)  2S 2P renormalized
     file H.pbe-kjpaw_psl.1.0.0.UPF: wavefunction(s)  1S renormalized

     IMPORTANT: XC functional enforced from input :
     Exchange-correlation= BEEF-VDW
                           (   1   4  43  14   2   0   0)
     Any further DFT definition will be discarded
     Please, verify this is what you really want

     Subspace diagonalization in iterative solution of the eigenvalue problem:
     a serial algorithm will be used

     bravais-lattice index     =            0
     lattice parameter (alat)  =      16.0349  a.u.
     unit-cell volume          =   11316.3275 (a.u.)^3
     number of atoms/cell      =           42
     number of atomic types    =            3
     number of electrons       =       375.00
     number of Kohn-Sham states=          226
     kinetic-energy cutoff     =      60.0000  Ry
     charge density cutoff     =     240.0000  Ry
     scf convergence threshold =      1.0E-06
     mixing beta               =       0.7000
     number of iterations used =            8  local-TF  mixing
     Exchange-correlation= BEEF-VDW
                           (   1   4  43  14   2   0   0)

     celldm(1)=  16.034858  celldm(2)=   0.000000  celldm(3)=   0.000000
     celldm(4)=   0.000000  celldm(5)=   0.000000  celldm(6)=   0.000000

     crystal axes: (cart. coord. in units of alat)
               a(1) = (   1.000000   0.000000   0.000000 )
               a(2) = (   0.500000   0.866025   0.000000 )
               a(3) = (   0.000000   0.000000   3.169418 )

     reciprocal axes: (cart. coord. in units 2 pi/alat)
               b(1) = (  1.000000 -0.577350  0.000000 )
               b(2) = (  0.000000  1.154701  0.000000 )
               b(3) = (  0.000000  0.000000  0.315515 )

     PseudoPot. # 1 for Pt read from file:
     /users/bkreitz1/quantum-espresso/potentials/Pt.pbe-n-kjpaw_psl.1.0.0.UPF
     MD5 check sum: 04dc8a03c51ece93fc7b5889c2958091
     Pseudo is Projector augmented-wave + core cor, Zval = 10.0
     Generated using 'atomic' code by A. Dal Corso  v.6.7MaX
     Shape of augmentation charge: PSQ
     Using radial grid of 1277 points,  6 beta functions with:
                l(1) =   0
                l(2) =   0
                l(3) =   1
                l(4) =   1
                l(5) =   2
                l(6) =   2
     Q(r) pseudized with 0 coefficients

     PseudoPot. # 2 for C  read from file:
     /users/bkreitz1/quantum-espresso/potentials/C.pbe-n-kjpaw_psl.1.0.0.UPF
     MD5 check sum: a169b0ebad56f5ec0d79c4633f80bf22
     Pseudo is Projector augmented-wave + core cor, Zval =  4.0
     Generated using 'atomic' code by A. Dal Corso  v.6.7MaX
     Shape of augmentation charge: PSQ
     Using radial grid of 1073 points,  4 beta functions with:
                l(1) =   0
                l(2) =   0
                l(3) =   1
                l(4) =   1
     Q(r) pseudized with 0 coefficients

     PseudoPot. # 3 for H  read from file:
     /users/bkreitz1/quantum-espresso/potentials/H.pbe-kjpaw_psl.1.0.0.UPF
     MD5 check sum: ae98473e6dc62675f0d0baffdab24f65
     Pseudo is Projector augmented-wave, Zval =  1.0
     Generated using 'atomic' code by A. Dal Corso  v.6.7MaX
     Shape of augmentation charge: PSQ
     Using radial grid of  929 points,  2 beta functions with:
                l(1) =   0
                l(2) =   0
     Q(r) pseudized with 0 coefficients

     atomic species   valence    mass     pseudopotential
        Pt            10.00   195.08400     Pt( 1.00)
        C              4.00    12.01100     C ( 1.00)
        H              1.00     1.00800     H ( 1.00)

     No symmetry found

   Cartesian axes

     site n.     atom                  positions (alat units)
         1           Pt  tau(   1) = (   0.0000000   0.0000000   1.0017346  )
         2           Pt  tau(   2) = (   0.3333333   0.0000000   1.0017346  )
         3           Pt  tau(   3) = (   0.6666667   0.0000000   1.0017346  )
         4           Pt  tau(   4) = (   0.1666667   0.2886751   1.0017346  )
         5           Pt  tau(   5) = (   0.5000000   0.2886751   1.0017346  )
         6           Pt  tau(   6) = (   0.8333333   0.2886751   1.0017346  )
         7           Pt  tau(   7) = (   0.3333333   0.5773503   1.0017346  )
         8           Pt  tau(   8) = (   0.6666667   0.5773503   1.0017346  )
         9           Pt  tau(   9) = (   1.0000000   0.5773503   1.0017346  )
        10           Pt  tau(  10) = (   0.1666667   0.0962250   1.2739001  )
        11           Pt  tau(  11) = (   0.5000000   0.0962250   1.2739001  )
        12           Pt  tau(  12) = (   0.8333333   0.0962250   1.2739001  )
        13           Pt  tau(  13) = (   0.3333333   0.3849002   1.2739001  )
        14           Pt  tau(  14) = (   0.6666667   0.3849002   1.2739001  )
        15           Pt  tau(  15) = (   1.0000000   0.3849002   1.2739001  )
        16           Pt  tau(  16) = (   0.5000000   0.6735753   1.2739001  )
        17           Pt  tau(  17) = (   0.8333333   0.6735753   1.2739001  )
        18           Pt  tau(  18) = (   1.1666667   0.6735753   1.2739001  )
        19           Pt  tau(  19) = (  -0.0016351   0.1926673   1.5490840  )
        20           Pt  tau(  20) = (   0.3382154   0.1949703   1.5460158  )
        21           Pt  tau(  21) = (   0.6669558   0.1905042   1.5460784  )
        22           Pt  tau(  22) = (   0.1644367   0.4807973   1.5483931  )
        23           Pt  tau(  23) = (   0.5009007   0.4799220   1.5470832  )
        24           Pt  tau(  24) = (   0.8333510   0.4779089   1.5459960  )
        25           Pt  tau(  25) = (   0.3350994   0.7668412   1.5415425  )
        26           Pt  tau(  26) = (   0.6678975   0.7690473   1.5400928  )
        27           Pt  tau(  27) = (   1.0001337   0.7645187   1.5432949  )
        28           Pt  tau(  28) = (   0.0052215  -0.0100461   1.8173350  )
        29           Pt  tau(  29) = (   0.3376260   0.0009360   1.8119339  )
        30           Pt  tau(  30) = (   0.6666167  -0.0175386   1.8111811  )
        31           Pt  tau(  31) = (   0.1758829   0.2820479   1.8195450  )
        32           Pt  tau(  32) = (   0.5074800   0.2889601   1.8404753  )
        33           Pt  tau(  33) = (   0.8469842   0.2643580   1.8302045  )
        34           Pt  tau(  34) = (   0.3321603   0.5704286   1.8201900  )
        35           Pt  tau(  35) = (   0.6654168   0.5821544   1.8198925  )
        36           Pt  tau(  36) = (   0.9930384   0.5646970   1.8402952  )
        37           C   tau(  37) = (   0.6684624   0.2741995   2.0156267  )
        38           C   tau(  38) = (   0.7893090   0.3804485   2.0640214  )
        39           C   tau(  39) = (   0.8078288   0.5418749   2.0068996  )
        40           H   tau(  40) = (   0.6523346   0.1711807   2.0905002  )
        41           H   tau(  41) = (   0.8606429   0.3451999   2.1652742  )
        42           H   tau(  42) = (   0.8249512   0.6327145   2.0976176  )

     number of k points=    13  Marzari-Vanderbilt smearing, width (Ry)=  0.0200
                       cart. coord. in units 2pi/alat
        k(    1) = (   0.0000000   0.0000000   0.0000000), wk =   0.0800000
        k(    2) = (   0.0000000   0.2309401   0.0000000), wk =   0.1600000
        k(    3) = (   0.0000000   0.4618802   0.0000000), wk =   0.1600000
        k(    4) = (   0.2000000  -0.1154701   0.0000000), wk =   0.1600000
        k(    5) = (   0.2000000   0.1154701   0.0000000), wk =   0.1600000
        k(    6) = (   0.2000000   0.3464102   0.0000000), wk =   0.1600000
        k(    7) = (   0.2000000  -0.5773503   0.0000000), wk =   0.1600000
        k(    8) = (   0.2000000  -0.3464102   0.0000000), wk =   0.1600000
        k(    9) = (   0.4000000  -0.2309401   0.0000000), wk =   0.1600000
        k(   10) = (   0.4000000  -0.0000000   0.0000000), wk =   0.1600000
        k(   11) = (   0.4000000   0.2309401   0.0000000), wk =   0.1600000
        k(   12) = (   0.4000000  -0.6928203   0.0000000), wk =   0.1600000
        k(   13) = (   0.4000000  -0.4618802   0.0000000), wk =   0.1600000

     Check: negative core charge=   -0.000002

     Initial potential from superposition of free atoms

     starting charge  374.99374, renormalised to  375.00000

     negative rho (up, down):  1.179E-02 0.000E+00

     %%%%%%%%%%%%%%%%%%%%%%%%%%%%%%%%%%%%%%%%%%%%%%%%%%%%%%%%%%%%%%%%%%%%%%%%
     %                                                                      %
     % You are using vdW-DF, which was implemented by the Thonhauser group. %
     % Please cite the following two papers that made this development      %
     % possible and the two reviews that describe the various versions:     %
     %                                                                      %
     %   T. Thonhauser et al., PRL 115, 136402 (2015).                      %
     %   T. Thonhauser et al., PRB 76, 125112 (2007).                       %
     %   K. Berland et al., Rep. Prog. Phys. 78, 066501 (2015).             %
     %   D.C. Langreth et al., J. Phys.: Condens. Matter 21, 084203 (2009). %
     %                                                                      %
     %                                                                      %
     % If you are calculating the stress with vdW-DF, please also cite:     %
     %                                                                      %
     %   R. Sabatini et al., J. Phys.: Condens. Matter 24, 424209 (2012).   %
     %                                                                      %
     %%%%%%%%%%%%%%%%%%%%%%%%%%%%%%%%%%%%%%%%%%%%%%%%%%%%%%%%%%%%%%%%%%%%%%%%

     Starting wfcs are  339 randomized atomic wfcs
     Checking if some PAW data can be deallocated...

     Self-consistent Calculation

     iteration #  1     ecut=    60.00 Ry     beta= 0.70
     Davidson diagonalization with overlap
     ethr =  1.00E-02,  avg # of iterations =  2.1

     Threshold (ethr) on eigenvalues was too large:
     Diagonalizing with lowered threshold

     Davidson diagonalization with overlap
     ethr =  8.86E-04,  avg # of iterations =  2.4

[...]

     total energy              =  -27814.47267229 Ry
     estimated scf accuracy    <       3.62400857 Ry

[...]

     iteration #  7     ecut=    60.00 Ry     beta= 0.70
     Davidson diagonalization with overlap
     c_bands:  3 eigenvalues not converged
     c_bands:  2 eigenvalues not converged
     c_bands:  3 eigenvalues not converged
     c_bands:  2 eigenvalues not converged
     c_bands:  1 eigenvalues not converged
     c_bands:  1 eigenvalues not converged
     c_bands:  1 eigenvalues not converged
     ethr =  3.58E-06,  avg # of iterations = 16.4

[...]

     iteration # 10     ecut=    60.00 Ry     beta= 0.70
     Davidson diagonalization with overlap
     c_bands:  1 eigenvalues not converged
     c_bands:  2 eigenvalues not converged
     ethr =  6.84E-07,  avg # of iterations = 10.4

[...]

     total energy              =  -27814.87381759 Ry
     estimated scf accuracy    <       0.00000102 Ry

     iteration # 21     ecut=    60.00 Ry     beta= 0.70
     Davidson diagonalization with overlap
     ethr =  2.73E-10,  avg # of iterations =  2.3

[...]

     End of self-consistent calculation

          k = 0.0000 0.0000 0.0000 ( 88877 PWs)   bands (ev):

   -13.9347 -10.7833  -7.5174  -6.6099  -6.1583  -5.3454  -4.5620  -4.5236
    -4.3402  -4.2576  -4.2410  -4.2321  -4.2201  -4.1996  -4.1454  -4.0872
    -3.8587  -3.7182  -3.7022  -3.6554  -3.6427  -3.6156  -3.4914  -3.3127
    -3.2625  -3.2265  -3.2081  -3.1144  -3.0761  -3.0300  -3.0003  -2.9859
    -2.9776  -2.9213  -2.8752  -2.8636  -2.8527  -2.8116  -2.7928  -2.7602
    -2.7253  -2.7100  -2.6996  -2.6855  -2.6644  -2.5599  -2.4580  -2.3214
    -2.2527  -2.2188  -2.1637  -2.1520  -2.1386  -2.0974  -2.0866  -2.0301
    -1.9982  -1.9536  -1.8993  -1.8871  -1.8784  -1.7334  -1.5220  -1.4732
    -1.4084  -1.3892  -1.3708  -1.3524  -1.3126  -1.2712  -1.2217  -1.2074
    -1.1726  -1.1618  -1.1501  -1.1434  -1.1377  -1.1268  -1.1070  -1.0898
    -1.0745  -1.0539  -1.0498  -1.0346  -1.0072  -0.9918  -0.9801  -0.9454
    -0.9308  -0.9044  -0.8519  -0.7889  -0.7601  -0.7413  -0.7247  -0.7203
    -0.6714  -0.6631  -0.6300  -0.6220  -0.6090  -0.5973  -0.5545  -0.5094
    -0.5035  -0.4819  -0.4608  -0.4574  -0.4116  -0.3944  -0.3424  -0.3236
    -0.2661  -0.2352  -0.1301  -0.0648  -0.0147   0.0516   0.0865   0.1094
     0.1708   0.1845   0.2126   0.2579   0.2831   0.3115   0.3515   0.3745
     0.3850   0.4059   0.4190   0.4383   0.4578   0.4797   0.5208   0.5778
     0.6625   0.6806   0.6907   0.7191   0.7456   0.8265   0.8630   0.8962
     0.9113   0.9315   0.9453   0.9859   0.9942   1.0440   1.0639   1.1273
     1.1732   1.1813   1.1978   1.2459   1.2619   1.2736   1.3156   1.3412
     1.3539   1.3656   1.3744   1.3906   1.4018   1.4100   1.4139   1.4302
     1.4455   1.4486   1.4664   1.4946   1.5204   1.5651   1.5926   1.6007
     1.6127   1.6282   1.6571   1.6654   1.6815   1.7075   1.7232   1.7341
     1.7423   1.7576   1.7903   1.7931   1.8235   1.8445   1.8563   1.8981
     1.9085   1.9730   2.0346   2.0821   2.1218   2.1486   2.1660   2.1942
     2.2034   2.2370   2.5636   2.5840   2.7093   2.9994   3.0438   3.0677
     3.5302   3.7831   4.4114   4.8308   5.2737   5.3201   5.5887   5.6623
     5.7941   6.0565   6.3273   6.7441   6.8151   6.9782   7.0082   7.0319
     7.0448   7.1286

[...]

          k = 0.4000-0.4619 0.0000 ( 88788 PWs)   bands (ev):

   -13.9338 -10.7846  -7.4790  -6.1605  -5.6943  -5.6356  -5.0756  -4.6342
    -4.5259  -4.4234  -4.2587  -3.9346  -3.8931  -3.7840  -3.7375  -3.7180
    -3.6150  -3.5822  -3.5106  -3.4956  -3.4775  -3.3934  -3.3816  -3.3789
    -3.3475  -3.3235  -3.2571  -3.2179  -3.1741  -3.1605  -3.1366  -3.1222
    -3.0359  -3.0250  -2.9175  -2.8960  -2.8601  -2.7870  -2.7667  -2.7313
    -2.7217  -2.6730  -2.6012  -2.5534  -2.5142  -2.4195  -2.3582  -2.3399
    -2.3119  -2.2631  -2.1990  -2.1436  -2.1156  -2.0621  -2.0527  -2.0063
    -1.9743  -1.9376  -1.9085  -1.8744  -1.8581  -1.8102  -1.7886  -1.7757
    -1.7331  -1.7151  -1.6755  -1.6692  -1.6446  -1.6094  -1.5534  -1.5278
    -1.4864  -1.4490  -1.4199  -1.3600  -1.3368  -1.3045  -1.2834  -1.2431
    -1.2249  -1.2100  -1.1536  -1.1402  -1.0970  -1.0779  -1.0373  -1.0148
    -1.0036  -0.9500  -0.9061  -0.8886  -0.8800  -0.8662  -0.7913  -0.7411
    -0.7138  -0.6905  -0.6563  -0.6435  -0.6236  -0.5981  -0.5748  -0.5552
    -0.5384  -0.5176  -0.5051  -0.4754  -0.4672  -0.4337  -0.4128  -0.3993
    -0.3875  -0.3687  -0.3523  -0.3017  -0.2451  -0.1816  -0.1420  -0.0958
    -0.0611   0.0151   0.0286   0.0560   0.0725   0.1031   0.1209   0.1719
     0.1933   0.2284   0.2452   0.2907   0.3165   0.3500   0.3671   0.4236
     0.4486   0.5157   0.5444   0.5994   0.6245   0.6791   0.7092   0.7652
     0.7682   0.7886   0.8112   0.8395   0.8713   0.8833   0.9332   0.9580
     0.9855   0.9986   1.0268   1.0584   1.0947   1.1249   1.1488   1.2064
     1.2838   1.3116   1.3729   1.4007   1.4779   1.5202   1.5589   1.5863
     1.6082   1.6833   1.7172   1.7488   1.8211   1.8283   1.8601   1.8930
     1.9147   1.9222   1.9602   2.0144   2.0373   2.0498   2.0608   2.0804
     2.0921   2.1327   2.1918   2.2323   2.2507   2.3102   2.3244   2.3452
     2.3668   2.3988   2.4819   2.5393   2.6274   3.0352   3.1251   3.2140
     3.4883   3.5593   3.7551   3.7983   3.8963   3.9826   4.0647   4.2728
     4.5083   4.5900   4.6383   4.9608   5.0405   5.1585   5.1799   5.2549
     5.4020   5.4953   5.5595   5.7449   5.9453   6.0413   6.2659   6.4300
     6.5458   6.6215

     the Fermi energy is     2.1350 ev

!    total energy              =  -27814.87381781 Ry

     total all-electron energy =  -1326874.931517 Ry
     estimated scf accuracy    <       0.00000025 Ry
     smearing contrib. (-TS)   =       0.00159186 Ry
     internal energy E=F+TS    =  -27814.87540967 Ry

     The total energy is F=E-TS. E is the sum of the following terms:
     one-electron contribution =  -27099.52778009 Ry
     hartree contribution      =   13856.39036796 Ry
     xc contribution           =    -906.71442366 Ry
     ewald contribution        =   11828.62453815 Ry
     one-center paw contrib.   =  -25493.64811203 Ry

     convergence has been achieved in  21 iterations

[...]

     Forces acting on atoms (cartesian axes, Ry/au):

     atom    1 type  1   force =    -0.00215130    0.00077258   -0.00547069
     atom    2 type  1   force =     0.00211283   -0.00087872   -0.00718092
     atom    3 type  1   force =    -0.00066037    0.00094932   -0.00477705
     atom    4 type  1   force =    -0.00161432   -0.00001029   -0.00332937
     atom    5 type  1   force =     0.00125354   -0.00092841   -0.00489873
     atom    6 type  1   force =     0.00031460   -0.00054332   -0.00428719
     atom    7 type  1   force =    -0.00006233    0.00048985   -0.00301062
     atom    8 type  1   force =     0.00005953    0.00109859   -0.00314997
     atom    9 type  1   force =    -0.00019253    0.00105407   -0.00384575
     atom   10 type  1   force =    -0.00090463    0.00431846    0.00067584
     atom   11 type  1   force =    -0.00357151    0.00158126    0.00349537
     atom   12 type  1   force =     0.00293116    0.00233436    0.00479812
     atom   13 type  1   force =    -0.00057608   -0.00228248    0.00374044
     atom   14 type  1   force =    -0.00183184   -0.00064324    0.00837525
     atom   15 type  1   force =     0.00181816   -0.00163093    0.01050139
     atom   16 type  1   force =     0.00071451   -0.00100708    0.00006864
     atom   17 type  1   force =     0.00071835    0.00060520    0.00220446
     atom   18 type  1   force =    -0.00007950   -0.00339767    0.00622322
     atom   19 type  1   force =     0.00034697    0.00008915    0.00029301
     atom   20 type  1   force =    -0.00010401    0.00050248    0.00004509
     atom   21 type  1   force =     0.00025242   -0.00010946   -0.00002874
     atom   22 type  1   force =    -0.00004331   -0.00013430    0.00040502
     atom   23 type  1   force =    -0.00020966   -0.00001054    0.00013313
     atom   24 type  1   force =    -0.00004443    0.00003976    0.00050977
     atom   25 type  1   force =    -0.00031077   -0.00006537   -0.00007838
     atom   26 type  1   force =     0.00017166    0.00029539   -0.00024233
     atom   27 type  1   force =     0.00035526    0.00010296    0.00029458
     atom   28 type  1   force =     0.00001760    0.00030807    0.00030687
     atom   29 type  1   force =    -0.00008643    0.00032122   -0.00015722
     atom   30 type  1   force =     0.00005726   -0.00016079    0.00013288
     atom   31 type  1   force =     0.00006993    0.00041616    0.00002887
     atom   32 type  1   force =     0.00013319   -0.00019227   -0.00039406
     atom   33 type  1   force =    -0.00055454    0.00049575    0.00060012
     atom   34 type  1   force =    -0.00018632   -0.00035099    0.00019280
     atom   35 type  1   force =     0.00033445    0.00001748    0.00021148
     atom   36 type  1   force =    -0.00025274    0.00002392    0.00028770
     atom   37 type  2   force =     0.00112110   -0.00206570    0.00080291
     atom   38 type  2   force =    -0.00087327   -0.00114283   -0.00219835
     atom   39 type  2   force =     0.00289061    0.00374549    0.00694828
     atom   40 type  3   force =     0.00019074    0.00028289   -0.00026599
     atom   41 type  3   force =    -0.00056275    0.00082502   -0.00076954
     atom   42 type  3   force =    -0.00099123   -0.00511504   -0.00719036

     Total force =     0.012965     Total SCF correction =     0.001147

[...]

     negative rho (up, down):  1.307E-02 0.000E+00

     negative rho (up, down):  1.307E-02 0.000E+00
 BEEFens 2000 ensemble energies
             -0.606885182042044E+02
             -0.362053063830484E+01
             -0.158461085788109E+02
              0.429399640766451E+02
             -0.221056004246968E+02
             -0.205338954827909E+02
             -0.352207309035134E+02
             -0.865140874988367E+02
             -0.465201300920081E+02
             -0.472751791649857E+02
             -0.369360913527174E+02
              0.225870296691003E+01
              0.408660309835781E+01
              0.761802299106046E+01
              0.266121689749266E+01
              0.474994002764460E+02
             -0.208866081699992E+02
             -0.230437389655271E+02
              0.193184355469856E+02
             -0.112389825296104E+03
              0.536369785209863E+02
             -0.289826741678199E+02
             -0.334602071358731E+01
             -0.113984441852076E+02
             -0.885162463204051E+01
             -0.466030680040237E+01
              0.882843838777399E+02
             -0.186915392647290E+02
             -0.901736287751078E+01
             -0.518626406161996E+02
              0.815794057404744E+02
             -0.187455415182135E+02
             -0.375156729986521E+02
              0.249373658026987E+02
             -0.283589562138269E+01
              0.164140214596301E+02
             -0.484957423190889E+01
              0.108035197321902E+02
              0.288302035080137E+02
             -0.103297521578768E+03
              0.558322435974560E+02
              0.142373792169033E+02
             -0.170410936342773E+01
             -0.361691558840985E+02
              0.123191362885079E+02
             -0.146503354983568E+02
              0.398560186449160E+02
              0.364856574084175E+02
             -0.308127001715657E+02
             -0.275315770908560E+02
             -0.328526775456380E+02
             -0.352098221596574E+02
              0.136183471966875E+02
             -0.491061439557303E+02
              0.115514128556408E+02
              0.623117834883151E+02
              0.635365851777464E+02
              0.355699395067380E+02
              0.154172871348074E+02
              0.270443652986801E+02
[...]
             -0.706186200555987E+02
             -0.918382593382717E+00
             -0.246228610328899E+01
             -0.882942510393787E+01
             -0.178186832429918E+01
             -0.652853431761665E+02
             -0.210829622640012E+02
              0.538842618162558E+01
              0.897563895048393E+01
              0.468844131449978E+02
             -0.397811450940666E+02
              0.657334140559457E+02
             -0.425270096973297E+02
              0.210287932638031E+02
              0.350375231385588E+02

 BEEF-vdW xc energy contributions
           1 :   -782.955636999164
           2 :    719.491261120488
           3 :   -609.426590101729
           4 :    479.587578640340
           5 :   -357.435729977776
           6 :    262.911100168660
           7 :   -203.820007104149
           8 :    175.729089461190
           9 :   -165.966456776104
          10 :    159.811731012782
          11 :   -146.332409063847
          12 :    121.664034195136
          13 :   -88.8774151427065
          14 :    55.0515147670650
          15 :   -27.2496976555431
          16 :    9.22767435664116
          17 :  -0.154914430098302
          18 :   -4.40280126257778
          19 :    9.96706420336898
          20 :   -20.4252669514535
          21 :    36.3565696505572
          22 :   -55.0619577964230
          23 :    72.1097775600796
          24 :   -83.5510667439048
          25 :    87.7156846732724
          26 :   -85.8048217356829
          27 :    81.1041174493583
          28 :   -77.2915951712771
          29 :    76.6945024778332
          30 :   -79.3183248277631
          31 :   -85.8984258278894
          32 :   -65.8905518801587

     Writing output data file ./pwscf.save/

     General routines

     Parallel routines

   This run was terminated on:  14:18:16   4Jan2023

   JOB DONE.