     Program PWSCF v.6.7MaX starts on  4Jan2023 at 10: 8: 1

     Reading input from chcho-mono-ensemble.in
Warning: card &CELL ignored
Warning: card / ignored

     Current dimensions of program PWSCF are:
     Max number of different atomic species (ntypx) = 10
     Max number of k-points (npk) =  40000
     Max angular momentum in pseudopotentials (lmaxx) =  3
     file Pt.pbe-n-kjpaw_psl.1.0.0.UPF: wavefunction(s)  6S 5D renormalized
     file C.pbe-n-kjpaw_psl.1.0.0.UPF: wavefunction(s)  2S 2P renormalized
     file O.pbe-nl-kjpaw_psl.1.0.0.UPF: wavefunction(s)  2S 2P renormalized
     file H.pbe-kjpaw_psl.1.0.0.UPF: wavefunction(s)  1S renormalized

     IMPORTANT: XC functional enforced from input :
     Exchange-correlation= BEEF-VDW
                           (   1   4  43  14   2   0   0)
     Any further DFT definition will be discarded
     Please, verify this is what you really want

     Subspace diagonalization in iterative solution of the eigenvalue problem:
     a serial algorithm will be used

     bravais-lattice index     =            0
     lattice parameter (alat)  =      16.0349  a.u.
     unit-cell volume          =   10950.2135 (a.u.)^3
     number of atoms/cell      =           41
     number of atomic types    =            4
     number of electrons       =       376.00
     number of Kohn-Sham states=          226
     kinetic-energy cutoff     =      60.0000  Ry
     charge density cutoff     =     240.0000  Ry
     scf convergence threshold =      1.0E-06
     mixing beta               =       0.7000
     number of iterations used =            8  local-TF  mixing
     Exchange-correlation= BEEF-VDW
                           (   1   4  43  14   2   0   0)

     celldm(1)=  16.034858  celldm(2)=   0.000000  celldm(3)=   0.000000
     celldm(4)=   0.000000  celldm(5)=   0.000000  celldm(6)=   0.000000

     crystal axes: (cart. coord. in units of alat)
               a(1) = (   1.000000   0.000000   0.000000 )
               a(2) = (   0.500000   0.866025   0.000000 )
               a(3) = (   0.000000   0.000000   3.066879 )

     reciprocal axes: (cart. coord. in units 2 pi/alat)
               b(1) = (  1.000000 -0.577350  0.000000 )
               b(2) = (  0.000000  1.154701  0.000000 )
               b(3) = (  0.000000  0.000000  0.326064 )

     PseudoPot. # 1 for Pt read from file:
     /users/bkreitz1/quantum-espresso/potentials/Pt.pbe-n-kjpaw_psl.1.0.0.UPF
     MD5 check sum: 04dc8a03c51ece93fc7b5889c2958091
     Pseudo is Projector augmented-wave + core cor, Zval = 10.0
     Generated using 'atomic' code by A. Dal Corso  v.6.7MaX
     Shape of augmentation charge: PSQ
     Using radial grid of 1277 points,  6 beta functions with:
                l(1) =   0
                l(2) =   0
                l(3) =   1
                l(4) =   1
                l(5) =   2
                l(6) =   2
     Q(r) pseudized with 0 coefficients

     PseudoPot. # 2 for C  read from file:
     /users/bkreitz1/quantum-espresso/potentials/C.pbe-n-kjpaw_psl.1.0.0.UPF
     MD5 check sum: a169b0ebad56f5ec0d79c4633f80bf22
     Pseudo is Projector augmented-wave + core cor, Zval =  4.0
     Generated using 'atomic' code by A. Dal Corso  v.6.7MaX
     Shape of augmentation charge: PSQ
     Using radial grid of 1073 points,  4 beta functions with:
                l(1) =   0
                l(2) =   0
                l(3) =   1
                l(4) =   1
     Q(r) pseudized with 0 coefficients

     PseudoPot. # 3 for O  read from file:
     /users/bkreitz1/quantum-espresso/potentials/O.pbe-nl-kjpaw_psl.1.0.0.UPF
     MD5 check sum: eef08af8b58d9ec80f8fdb78829eb7cf
     Pseudo is Projector augmented-wave + core cor, Zval =  6.0
     Generated using 'atomic' code by A. Dal Corso  v.6.7MaX
     Shape of augmentation charge: PSQ
     Using radial grid of 1095 points,  4 beta functions with:
                l(1) =   0
                l(2) =   0
                l(3) =   1
                l(4) =   1
     Q(r) pseudized with 0 coefficients

     PseudoPot. # 4 for H  read from file:
     /users/bkreitz1/quantum-espresso/potentials/H.pbe-kjpaw_psl.1.0.0.UPF
     MD5 check sum: ae98473e6dc62675f0d0baffdab24f65
     Pseudo is Projector augmented-wave, Zval =  1.0
     Generated using 'atomic' code by A. Dal Corso  v.6.7MaX
     Shape of augmentation charge: PSQ
     Using radial grid of  929 points,  2 beta functions with:
                l(1) =   0
                l(2) =   0
     Q(r) pseudized with 0 coefficients

     atomic species   valence    mass     pseudopotential
        Pt            10.00   195.08400     Pt( 1.00)
        C              4.00    12.01100     C ( 1.00)
        O              6.00    15.99900     O ( 1.00)
        H              1.00     1.00800     H ( 1.00)

     No symmetry found

   Cartesian axes

     site n.     atom                  positions (alat units)
         1           Pt  tau(   1) = (   0.0000000   0.0000000   1.0017346  )
         2           Pt  tau(   2) = (   0.3333333   0.0000000   1.0017346  )
         3           Pt  tau(   3) = (   0.6666667   0.0000000   1.0017346  )
         4           Pt  tau(   4) = (   0.1666667   0.2886751   1.0017346  )
         5           Pt  tau(   5) = (   0.5000000   0.2886751   1.0017346  )
         6           Pt  tau(   6) = (   0.8333333   0.2886751   1.0017346  )
         7           Pt  tau(   7) = (   0.3333333   0.5773503   1.0017346  )
         8           Pt  tau(   8) = (   0.6666667   0.5773503   1.0017346  )
         9           Pt  tau(   9) = (   1.0000000   0.5773503   1.0017346  )
        10           Pt  tau(  10) = (   0.1666667   0.0962250   1.2739001  )
        11           Pt  tau(  11) = (   0.5000000   0.0962250   1.2739001  )
        12           Pt  tau(  12) = (   0.8333333   0.0962250   1.2739001  )
        13           Pt  tau(  13) = (   0.3333333   0.3849002   1.2739001  )
        14           Pt  tau(  14) = (   0.6666667   0.3849002   1.2739001  )
        15           Pt  tau(  15) = (   1.0000000   0.3849002   1.2739001  )
        16           Pt  tau(  16) = (   0.5000000   0.6735753   1.2739001  )
        17           Pt  tau(  17) = (   0.8333333   0.6735753   1.2739001  )
        18           Pt  tau(  18) = (   1.1666667   0.6735753   1.2739001  )
        19           Pt  tau(  19) = (   0.0003683   0.1923881   1.5397341  )
        20           Pt  tau(  20) = (   0.3353337   0.1942125   1.5480913  )
        21           Pt  tau(  21) = (   0.6640131   0.1941491   1.5450728  )
        22           Pt  tau(  22) = (   0.1648200   0.4815407   1.5413398  )
        23           Pt  tau(  23) = (   0.4996546   0.4818291   1.5460343  )
        24           Pt  tau(  24) = (   0.8308424   0.4830860   1.5450759  )
        25           Pt  tau(  25) = (   0.3322786   0.7716484   1.5415304  )
        26           Pt  tau(  26) = (   0.6664132   0.7678126   1.5482317  )
        27           Pt  tau(  27) = (   0.9988511   0.7707996   1.5431402  )
        28           Pt  tau(  28) = (  -0.0026761   0.0022636   1.8172288  )
        29           Pt  tau(  29) = (   0.3297429   0.0023807   1.8194455  )
        30           Pt  tau(  30) = (   0.6624177   0.0034443   1.8173637  )
        31           Pt  tau(  31) = (   0.1640133   0.2906840   1.8164486  )
        32           Pt  tau(  32) = (   0.4966277   0.2943493   1.8380757  )
        33           Pt  tau(  33) = (   0.8363154   0.2876025   1.8115266  )
        34           Pt  tau(  34) = (   0.3235651   0.5838310   1.8125122  )
        35           Pt  tau(  35) = (   0.6604528   0.5780149   1.8388046  )
        36           Pt  tau(  36) = (   0.9952001   0.5800796   1.8172486  )
        37           C   tau(  37) = (   0.5741120   0.4384049   2.0183506  )
        38           C   tau(  38) = (   0.4531257   0.5065897   2.1301597  )
        39           O   tau(  39) = (   0.3499667   0.4272777   2.1914146  )
        40           H   tau(  40) = (   0.6687357   0.3815429   2.0858243  )
        41           H   tau(  41) = (   0.4694210   0.6327238   2.1617043  )

     number of k points=    13  Marzari-Vanderbilt smearing, width (Ry)=  0.0200
                       cart. coord. in units 2pi/alat
        k(    1) = (   0.0000000   0.0000000   0.0000000), wk =   0.0800000
        k(    2) = (   0.0000000   0.2309401   0.0000000), wk =   0.1600000
        k(    3) = (   0.0000000   0.4618802   0.0000000), wk =   0.1600000
        k(    4) = (   0.2000000  -0.1154701   0.0000000), wk =   0.1600000
        k(    5) = (   0.2000000   0.1154701   0.0000000), wk =   0.1600000
        k(    6) = (   0.2000000   0.3464102   0.0000000), wk =   0.1600000
        k(    7) = (   0.2000000  -0.5773503   0.0000000), wk =   0.1600000
        k(    8) = (   0.2000000  -0.3464102   0.0000000), wk =   0.1600000
        k(    9) = (   0.4000000  -0.2309401   0.0000000), wk =   0.1600000
        k(   10) = (   0.4000000  -0.0000000   0.0000000), wk =   0.1600000
        k(   11) = (   0.4000000   0.2309401   0.0000000), wk =   0.1600000
        k(   12) = (   0.4000000  -0.6928203   0.0000000), wk =   0.1600000
        k(   13) = (   0.4000000  -0.4618802   0.0000000), wk =   0.1600000

     Check: negative core charge=   -0.000002

     Initial potential from superposition of free atoms

     starting charge  375.99379, renormalised to  376.00000

     negative rho (up, down):  1.150E-02 0.000E+00

     %%%%%%%%%%%%%%%%%%%%%%%%%%%%%%%%%%%%%%%%%%%%%%%%%%%%%%%%%%%%%%%%%%%%%%%%
     %                                                                      %
     % You are using vdW-DF, which was implemented by the Thonhauser group. %
     % Please cite the following two papers that made this development      %
     % possible and the two reviews that describe the various versions:     %
     %                                                                      %
     %   T. Thonhauser et al., PRL 115, 136402 (2015).                      %
     %   T. Thonhauser et al., PRB 76, 125112 (2007).                       %
     %   K. Berland et al., Rep. Prog. Phys. 78, 066501 (2015).             %
     %   D.C. Langreth et al., J. Phys.: Condens. Matter 21, 084203 (2009). %
     %                                                                      %
     %                                                                      %
     % If you are calculating the stress with vdW-DF, please also cite:     %
     %                                                                      %
     %   R. Sabatini et al., J. Phys.: Condens. Matter 24, 424209 (2012).   %
     %                                                                      %
     %%%%%%%%%%%%%%%%%%%%%%%%%%%%%%%%%%%%%%%%%%%%%%%%%%%%%%%%%%%%%%%%%%%%%%%%

     Starting wfcs are  338 randomized atomic wfcs
     Checking if some PAW data can be deallocated...

     Self-consistent Calculation

     iteration #  1     ecut=    60.00 Ry     beta= 0.70
     Davidson diagonalization with overlap
     ethr =  1.00E-02,  avg # of iterations =  2.0

[...]

     total energy              =  -27836.27141778 Ry
     estimated scf accuracy    <       4.33085054 Ry

[...]

     iteration #  5     ecut=    60.00 Ry     beta= 0.70
     Davidson diagonalization with overlap
     c_bands:  1 eigenvalues not converged
     c_bands:  1 eigenvalues not converged
     c_bands:  2 eigenvalues not converged
     ethr =  4.41E-05,  avg # of iterations = 12.9

[...]

     iteration #  9     ecut=    60.00 Ry     beta= 0.70
     Davidson diagonalization with overlap
     c_bands:  1 eigenvalues not converged
     ethr =  6.05E-07,  avg # of iterations =  5.3

[...]

     total energy              =  -27837.13082787 Ry
     estimated scf accuracy    <       0.00000186 Ry

     iteration # 16     ecut=    60.00 Ry     beta= 0.70
     Davidson diagonalization with overlap
     ethr =  4.94E-10,  avg # of iterations =  2.3

[...]

     End of self-consistent calculation

          k = 0.0000 0.0000 0.0000 ( 85957 PWs)   bands (ev):

   -19.3206 -11.4970  -7.3967  -6.7782  -5.5526  -4.8706  -4.8098  -4.4093
    -4.3966  -4.3735  -4.3717  -4.3634  -4.3454  -4.3263  -4.1527  -3.8781
    -3.8299  -3.8242  -3.8051  -3.8017  -3.7778  -3.6793  -3.3806  -3.3587
    -3.3584  -3.3512  -3.3287  -3.2565  -3.1527  -3.1482  -3.1404  -3.1296
    -3.1090  -3.0374  -2.9391  -2.9249  -2.9225  -2.9218  -2.8969  -2.8879
    -2.8665  -2.8649  -2.8568  -2.8480  -2.8175  -2.7671  -2.3843  -2.3077
    -2.2978  -2.2888  -2.2750  -2.2691  -2.2122  -2.2092  -2.2037  -2.1665
    -2.0822  -2.0689  -2.0315  -2.0183  -1.9439  -1.6271  -1.5502  -1.4839
    -1.4803  -1.4599  -1.4247  -1.4126  -1.3752  -1.3172  -1.2969  -1.2942
    -1.2895  -1.2865  -1.2782  -1.2709  -1.2516  -1.2277  -1.2147  -1.2107
    -1.2043  -1.1978  -1.1840  -1.1662  -1.0964  -1.0788  -1.0724  -1.0492
    -1.0219  -0.9177  -0.9040  -0.8788  -0.8666  -0.8486  -0.8448  -0.8161
    -0.8035  -0.7963  -0.7568  -0.7350  -0.7124  -0.6753  -0.6401  -0.6393
    -0.5990  -0.5982  -0.5535  -0.5258  -0.4685  -0.4417  -0.4371  -0.4259
    -0.3897  -0.3477  -0.1961  -0.0134   0.0012   0.0120   0.0386   0.0594
     0.0674   0.0831   0.1039   0.1224   0.1730   0.2023   0.2191   0.2328
     0.2645   0.3224   0.3253   0.3420   0.3893   0.4252   0.4602   0.4786
     0.5399   0.5476   0.5562   0.5694   0.7348   0.7579   0.7765   0.7933
     0.7938   0.8136   0.8535   0.8584   0.9103   0.9875   1.0397   1.0503
     1.0629   1.0834   1.1105   1.1575   1.1663   1.1872   1.2141   1.2342
     1.2383   1.2392   1.2517   1.2557   1.2720   1.2788   1.2940   1.2981
     1.3364   1.3399   1.3723   1.3821   1.4074   1.4174   1.4612   1.4701
     1.4708   1.4845   1.4969   1.5083   1.5385   1.5506   1.6034   1.6093
     1.6096   1.6327   1.6430   1.6463   1.6767   1.7055   1.7208   1.7324
     1.7626   1.7648   1.7686   1.9076   1.9223   2.0136   2.0303   2.0434
     2.0649   2.0755   2.0783   2.4185   2.5221   2.9008   2.9341   2.9565
     2.9731   3.0101   3.8240   4.5923   4.9097   5.2341   5.2790   5.3054
     5.5670   5.8104   6.2904   6.7907   6.8497   6.8685   6.8855   6.8894
     6.9049   7.0082

[...]

          k = 0.4000-0.4619 0.0000 ( 85962 PWs)   bands (ev):

   -19.3206 -11.4961  -7.3886  -5.8475  -5.8027  -5.2206  -4.9027  -4.8651
    -4.5829  -4.3580  -4.0894  -4.0203  -3.9061  -3.8861  -3.7990  -3.7595
    -3.7164  -3.6675  -3.6472  -3.5792  -3.5478  -3.5206  -3.5033  -3.4947
    -3.4604  -3.3781  -3.3557  -3.3240  -3.3163  -3.2949  -3.2829  -3.1802
    -3.1054  -3.0673  -2.9638  -2.9434  -2.9410  -2.9145  -2.9027  -2.8676
    -2.8067  -2.7873  -2.7072  -2.6803  -2.5170  -2.4888  -2.4575  -2.3956
    -2.3478  -2.3233  -2.2923  -2.2349  -2.1827  -2.1499  -2.1140  -2.1004
    -2.0747  -2.0160  -1.9982  -1.9779  -1.9307  -1.8962  -1.8771  -1.8499
    -1.8450  -1.8242  -1.8200  -1.7744  -1.7123  -1.6644  -1.6404  -1.6047
    -1.5862  -1.5315  -1.5016  -1.4402  -1.4291  -1.3882  -1.3585  -1.3453
    -1.3346  -1.2812  -1.2569  -1.2412  -1.2195  -1.1738  -1.1607  -1.1476
    -1.0683  -1.0244  -1.0140  -1.0023  -0.9893  -0.9244  -0.8828  -0.8290
    -0.8142  -0.7947  -0.7733  -0.7538  -0.7386  -0.7205  -0.6927  -0.6843
    -0.6649  -0.6487  -0.6199  -0.6057  -0.5735  -0.5654  -0.5506  -0.5433
    -0.5240  -0.4900  -0.4885  -0.4056  -0.2966  -0.2431  -0.1857  -0.1711
    -0.1071  -0.0817  -0.0590  -0.0177   0.0112   0.0228   0.0446   0.0588
     0.1114   0.1195   0.1602   0.1644   0.2125   0.2505   0.3061   0.3126
     0.3310   0.3760   0.4495   0.5128   0.5399   0.5723   0.6368   0.6498
     0.6609   0.6879   0.7191   0.7400   0.7514   0.7798   0.8002   0.8293
     0.8787   0.9196   0.9244   0.9649   0.9923   1.0109   1.0145   1.0331
     1.1481   1.1646   1.2356   1.2640   1.3364   1.3634   1.4325   1.4473
     1.5430   1.5486   1.5642   1.5767   1.6556   1.6924   1.7312   1.7525
     1.7642   1.7970   1.8013   1.8582   1.8684   1.9292   1.9461   1.9622
     1.9720   1.9954   2.0010   2.0085   2.0865   2.1689   2.1913   2.2028
     2.2191   2.2330   2.2826   2.2975   2.3875   2.4707   3.0128   3.2907
     3.3694   3.3863   3.5502   3.6447   3.7431   3.7858   3.8107   4.2701
     4.3663   4.4266   4.5547   4.8273   4.8546   4.9489   4.9742   5.0848
     5.2382   5.3034   5.3432   5.4027   5.6073   5.8073   5.9496   6.3168
     6.4673   6.5015

     the Fermi energy is     1.9972 ev

!    total energy              =  -27837.13082665 Ry

     total all-electron energy =  -1326948.271328 Ry
     estimated scf accuracy    <       0.00000063 Ry
     smearing contrib. (-TS)   =       0.00285717 Ry
     internal energy E=F+TS    =  -27837.13368381 Ry

     The total energy is F=E-TS. E is the sum of the following terms:
     one-electron contribution =  -24909.14984797 Ry
     hartree contribution      =   12761.47166855 Ry
     xc contribution           =    -908.71831795 Ry
     ewald contribution        =   10716.46898351 Ry
     one-center paw contrib.   =  -25497.20616995 Ry

     convergence has been achieved in  16 iterations

[...]

     Forces acting on atoms (cartesian axes, Ry/au):

     atom    1 type  1   force =    -0.00088369   -0.00182417   -0.00547609
     atom    2 type  1   force =    -0.00039683    0.00007678   -0.00247579
     atom    3 type  1   force =     0.00082790   -0.00032959   -0.00380411
     atom    4 type  1   force =     0.00109672    0.00158034   -0.00545952
     atom    5 type  1   force =    -0.00029404   -0.00030064   -0.00310291
     atom    6 type  1   force =     0.00037810   -0.00052889   -0.00331758
     atom    7 type  1   force =    -0.00010777   -0.00004805   -0.00417688
     atom    8 type  1   force =     0.00005866    0.00029012   -0.00313851
     atom    9 type  1   force =     0.00061638   -0.00049102   -0.00362567
     atom   10 type  1   force =     0.00130296   -0.00070961   -0.00178492
     atom   11 type  1   force =    -0.00213747    0.00177205    0.00937910
     atom   12 type  1   force =    -0.00026394    0.00063113   -0.00088817
     atom   13 type  1   force =     0.00013933   -0.00285484    0.00525105
     atom   14 type  1   force =    -0.00025231    0.00030092    0.00936069
     atom   15 type  1   force =    -0.00080562    0.00014137   -0.00190663
     atom   16 type  1   force =     0.00273474    0.00136800    0.00551801
     atom   17 type  1   force =    -0.00258132    0.00107692    0.00927199
     atom   18 type  1   force =    -0.00082930    0.00044800    0.00153848
     atom   19 type  1   force =     0.00017878   -0.00012994   -0.00009030
     atom   20 type  1   force =     0.00001417   -0.00028509    0.00014486
     atom   21 type  1   force =    -0.00022303    0.00035702   -0.00039307
     atom   22 type  1   force =    -0.00008623   -0.00001600   -0.00021923
     atom   23 type  1   force =    -0.00021393    0.00007288    0.00007065
     atom   24 type  1   force =    -0.00045118   -0.00015874   -0.00041900
     atom   25 type  1   force =    -0.00008896    0.00004592   -0.00025351
     atom   26 type  1   force =     0.00017673   -0.00001030    0.00015425
     atom   27 type  1   force =    -0.00041694    0.00021142    0.00018437
     atom   28 type  1   force =    -0.00020324    0.00011248    0.00010973
     atom   29 type  1   force =     0.00026292   -0.00029024    0.00056797
     atom   30 type  1   force =    -0.00011993   -0.00005982    0.00027793
     atom   31 type  1   force =    -0.00034308   -0.00005138    0.00025706
     atom   32 type  1   force =    -0.00037368    0.00009153   -0.00011230
     atom   33 type  1   force =     0.00003737   -0.00024927    0.00026918
     atom   34 type  1   force =    -0.00012285    0.00006055    0.00028146
     atom   35 type  1   force =    -0.00022776    0.00038488   -0.00023134
     atom   36 type  1   force =     0.00003793    0.00002591    0.00023583
     atom   37 type  2   force =     0.00143812   -0.00074843   -0.00052506
     atom   38 type  2   force =     0.00058332    0.00292708    0.00063743
     atom   39 type  3   force =     0.00033900   -0.00014324   -0.00034697
     atom   40 type  4   force =     0.00035310    0.00010638    0.00017641
     atom   41 type  4   force =     0.00084688   -0.00285242   -0.00193889

     Total force =     0.005308     Total SCF correction =     0.001532
     SCF correction compared to forces is large: reduce conv_thr to get better values

[...]

     negative rho (up, down):  1.283E-02 0.000E+00

     negative rho (up, down):  1.283E-02 0.000E+00
 BEEFens 2000 ensemble energies
             -0.608238543731412E+02
             -0.362636268455500E+01
             -0.158703334064672E+02
              0.430641209451843E+02
             -0.221738722221831E+02
             -0.205784395099711E+02
             -0.353356850668307E+02
             -0.867327073626634E+02
             -0.466216304421363E+02
             -0.474031878104123E+02
             -0.370276844572582E+02
              0.228479471776205E+01
              0.406910626996304E+01
              0.763038601995882E+01
              0.266772795808100E+01
              0.476135403632125E+02
             -0.209409319866712E+02
             -0.230709666331798E+02
              0.193375541634431E+02
             -0.112673151608634E+03
              0.537851653936028E+02
             -0.290490354474924E+02
             -0.336263432980078E+01
             -0.114461469412521E+02
             -0.884765367907005E+01
             -0.465707616624383E+01
              0.885013559192496E+02
             -0.187621235833448E+02
             -0.902833855126391E+01
             -0.519728887827522E+02
              0.817542028547673E+02
             -0.187658109438518E+02
             -0.376012600775098E+02
              0.249892525657820E+02
             -0.285824848606421E+01
              0.164544123890920E+02
             -0.486264828254212E+01
              0.108297877145268E+02
              0.288940582422421E+02
             -0.103540626749319E+03
              0.559828262273900E+02
              0.142675034932693E+02
             -0.173515358634228E+01
             -0.362394111133028E+02
              0.123471602541176E+02
             -0.147292669425315E+02
              0.399577675795828E+02
              0.365794295777195E+02
             -0.308816061598726E+02
             -0.275846588433263E+02
             -0.329136298224972E+02
             -0.352987831973126E+02
              0.136542615211692E+02
             -0.492189961598567E+02
              0.115967408806321E+02
              0.624599494739147E+02
              0.637106331608062E+02
              0.356782865836149E+02
              0.154547974535066E+02
              0.271209750843454E+02
[...]
             -0.707990727495913E+02
             -0.886294372256543E+00
             -0.246538932188152E+01
             -0.885080073467338E+01
             -0.180087528873491E+01
             -0.654539485851245E+02
             -0.211179517906824E+02
              0.540598618761816E+01
              0.901137165478045E+01
              0.470063192904497E+02
             -0.398703686983735E+02
              0.658822908046754E+02
             -0.426284887207946E+02
              0.210926854258748E+02
              0.351284701465734E+02

 BEEF-vdW xc energy contributions
           1 :   -784.675908044173
           2 :    720.797877586270
           3 :   -610.234033201010
           4 :    480.112721801119
           5 :   -357.955117132358
           6 :    263.571581725569
           7 :   -204.598440216963
           8 :    176.500253708322
           9 :   -166.600099897005
          10 :    160.242678880819
          11 :   -146.580833766607
          12 :    121.809993981474
          13 :   -89.0089261556615
          14 :    55.2153651129538
          15 :   -27.4356045417510
          16 :    9.39226249463411
          17 :  -0.259863357322047
          18 :   -4.36731562317027
          19 :    9.98508975310278
          20 :   -20.4749661729302
          21 :    36.4282612276215
          22 :   -55.1617730185037
          23 :    72.2488051508288
          24 :   -83.7313779679433
          25 :    87.9219844478955
          26 :   -86.0070410151005
          27 :    81.2744405255060
          28 :   -77.4231636440571
          29 :    76.8047077763798
          30 :   -79.4344182810297
          31 :   -86.0172383404473
          32 :   -65.9058327983954

     Writing output data file ./pwscf.save/

     General routines

     Parallel routines

   This run was terminated on:  13:12:52   4Jan2023

   JOB DONE.