     Program PWSCF v.6.8 starts on 23Jan2023 at 15:25:34

     Reading input from chch2ch-bi-ensemble.in
Warning: card &CELL ignored
Warning: card / ignored

     Current dimensions of program PWSCF are:
     Max number of different atomic species (ntypx) = 10
     Max number of k-points (npk) =  40000
     Max angular momentum in pseudopotentials (lmaxx) =  4
     file Pt.pbe-n-kjpaw_psl.1.0.0.UPF: wavefunction(s)  6S 5D renormalized
     file C.pbe-n-kjpaw_psl.1.0.0.UPF: wavefunction(s)  2S 2P renormalized
     file H.pbe-kjpaw_psl.1.0.0.UPF: wavefunction(s)  1S renormalized

     IMPORTANT: XC functional enforced from input :
     Exchange-correlation= BEEF-VDW
                           (   1   4  43  14   2   0   0)
     Any further DFT definition will be discarded
     Please, verify this is what you really want

     Subspace diagonalization in iterative solution of the eigenvalue problem:
     a serial algorithm will be used

     Using Slab Decomposition

     bravais-lattice index     =            0
     lattice parameter (alat)  =      16.0349  a.u.
     unit-cell volume          =   11704.3748 (a.u.)^3
     number of atoms/cell      =           43
     number of atomic types    =            3
     number of electrons       =       376.00
     number of Kohn-Sham states=          226
     kinetic-energy cutoff     =      60.0000  Ry
     charge density cutoff     =     240.0000  Ry
     scf convergence threshold =      1.0E-06
     mixing beta               =       0.7000
     number of iterations used =            8  local-TF  mixing
     Exchange-correlation= BEEF-VDW
                           (   1   4  43  14   2   0   0)

     celldm(1)=  16.034858  celldm(2)=   0.000000  celldm(3)=   0.000000
     celldm(4)=   0.000000  celldm(5)=   0.000000  celldm(6)=   0.000000

     crystal axes: (cart. coord. in units of alat)
               a(1) = (   1.000000   0.000000   0.000000 )
               a(2) = (   0.500000   0.866025   0.000000 )
               a(3) = (   0.000000   0.000000   3.278100 )

     reciprocal axes: (cart. coord. in units 2 pi/alat)
               b(1) = (  1.000000 -0.577350  0.000000 )
               b(2) = (  0.000000  1.154701  0.000000 )
               b(3) = (  0.000000  0.000000  0.305055 )

     PseudoPot. # 1 for Pt read from file:
     /users/bkreitz1/quantum-espresso/potentials/Pt.pbe-n-kjpaw_psl.1.0.0.UPF
     MD5 check sum: 04dc8a03c51ece93fc7b5889c2958091
     Pseudo is Projector augmented-wave + core cor, Zval = 10.0
     Generated using 'atomic' code by A. Dal Corso  v.6.7MaX
     Shape of augmentation charge: PSQ
     Using radial grid of 1277 points,  6 beta functions with:
                l(1) =   0
                l(2) =   0
                l(3) =   1
                l(4) =   1
                l(5) =   2
                l(6) =   2
     Q(r) pseudized with 0 coefficients

     PseudoPot. # 2 for C  read from file:
     /users/bkreitz1/quantum-espresso/potentials/C.pbe-n-kjpaw_psl.1.0.0.UPF
     MD5 check sum: a169b0ebad56f5ec0d79c4633f80bf22
     Pseudo is Projector augmented-wave + core cor, Zval =  4.0
     Generated using 'atomic' code by A. Dal Corso  v.6.7MaX
     Shape of augmentation charge: PSQ
     Using radial grid of 1073 points,  4 beta functions with:
                l(1) =   0
                l(2) =   0
                l(3) =   1
                l(4) =   1
     Q(r) pseudized with 0 coefficients

     PseudoPot. # 3 for H  read from file:
     /users/bkreitz1/quantum-espresso/potentials/H.pbe-kjpaw_psl.1.0.0.UPF
     MD5 check sum: ae98473e6dc62675f0d0baffdab24f65
     Pseudo is Projector augmented-wave, Zval =  1.0
     Generated using 'atomic' code by A. Dal Corso  v.6.7MaX
     Shape of augmentation charge: PSQ
     Using radial grid of  929 points,  2 beta functions with:
                l(1) =   0
                l(2) =   0
     Q(r) pseudized with 0 coefficients

     atomic species   valence    mass     pseudopotential
        Pt            10.00   195.08400     Pt( 1.00)
        C              4.00    12.01100     C ( 1.00)
        H              1.00     1.00800     H ( 1.00)

     No symmetry found

   Cartesian axes

     site n.     atom                  positions (alat units)
         1           Pt  tau(   1) = (   0.0000000   0.0000000   1.0017346  )
         2           Pt  tau(   2) = (   0.3333333   0.0000000   1.0017346  )
         3           Pt  tau(   3) = (   0.6666667   0.0000000   1.0017346  )
         4           Pt  tau(   4) = (   0.1666667   0.2886751   1.0017346  )
         5           Pt  tau(   5) = (   0.5000000   0.2886751   1.0017346  )
         6           Pt  tau(   6) = (   0.8333333   0.2886751   1.0017346  )
         7           Pt  tau(   7) = (   0.3333333   0.5773503   1.0017346  )
         8           Pt  tau(   8) = (   0.6666667   0.5773503   1.0017346  )
         9           Pt  tau(   9) = (   1.0000000   0.5773503   1.0017346  )
        10           Pt  tau(  10) = (   0.1666667   0.0962250   1.2739001  )
        11           Pt  tau(  11) = (   0.5000000   0.0962250   1.2739001  )
        12           Pt  tau(  12) = (   0.8333333   0.0962250   1.2739001  )
        13           Pt  tau(  13) = (   0.3333333   0.3849002   1.2739001  )
        14           Pt  tau(  14) = (   0.6666667   0.3849002   1.2739001  )
        15           Pt  tau(  15) = (   1.0000000   0.3849002   1.2739001  )
        16           Pt  tau(  16) = (   0.5000000   0.6735753   1.2739001  )
        17           Pt  tau(  17) = (   0.8333333   0.6735753   1.2739001  )
        18           Pt  tau(  18) = (   1.1666667   0.6735753   1.2739001  )
        19           Pt  tau(  19) = (  -0.0023595   0.1962192   1.5491156  )
        20           Pt  tau(  20) = (   0.3359588   0.1966184   1.5490149  )
        21           Pt  tau(  21) = (   0.6667052   0.1942428   1.5487127  )
        22           Pt  tau(  22) = (   0.1664626   0.4821707   1.5428080  )
        23           Pt  tau(  23) = (   0.4998517   0.4811620   1.5423767  )
        24           Pt  tau(  24) = (   0.8335975   0.4821697   1.5417696  )
        25           Pt  tau(  25) = (   0.3316099   0.7729269   1.5472513  )
        26           Pt  tau(  26) = (   0.6663805   0.7747900   1.5388261  )
        27           Pt  tau(  27) = (   1.0025123   0.7733739   1.5482154  )
        28           Pt  tau(  28) = (   0.0015310   0.0021138   1.8208743  )
        29           Pt  tau(  29) = (   0.3293918   0.0016857   1.8180845  )
        30           Pt  tau(  30) = (   0.6644583  -0.0148211   1.8315749  )
        31           Pt  tau(  31) = (   0.1666242   0.2891292   1.8205478  )
        32           Pt  tau(  32) = (   0.5029064   0.2878461   1.8381149  )
        33           Pt  tau(  33) = (   0.8306551   0.2926493   1.8337599  )
        34           Pt  tau(  34) = (   0.3354270   0.5711195   1.8151003  )
        35           Pt  tau(  35) = (   0.6654430   0.5875157   1.8085686  )
        36           Pt  tau(  36) = (   0.9966378   0.5727680   1.8166285  )
        37           C   tau(  37) = (   0.6990035   0.0087512   2.0501695  )
        38           C   tau(  38) = (   0.6813360   0.1635100   2.1283854  )
        39           C   tau(  39) = (   0.6687706   0.3015702   2.0157093  )
        40           H   tau(  40) = (   0.7268284  -0.0922209   2.1247361  )
        41           H   tau(  41) = (   0.5754574   0.1571084   2.2044210  )
        42           H   tau(  42) = (   0.7800475   0.1823536   2.2110951  )
        43           H   tau(  43) = (   0.6654407   0.4140411   2.0793911  )

     number of k points=    13  Marzari-Vanderbilt smearing, width (Ry)=  0.0200
                       cart. coord. in units 2pi/alat
        k(    1) = (   0.0000000   0.0000000   0.0000000), wk =   0.0800000
        k(    2) = (   0.0000000   0.2309401   0.0000000), wk =   0.1600000
        k(    3) = (   0.0000000   0.4618802   0.0000000), wk =   0.1600000
        k(    4) = (   0.2000000  -0.1154701   0.0000000), wk =   0.1600000
        k(    5) = (   0.2000000   0.1154701   0.0000000), wk =   0.1600000
        k(    6) = (   0.2000000   0.3464102   0.0000000), wk =   0.1600000
        k(    7) = (   0.2000000  -0.5773503   0.0000000), wk =   0.1600000
        k(    8) = (   0.2000000  -0.3464102   0.0000000), wk =   0.1600000
        k(    9) = (   0.4000000  -0.2309401   0.0000000), wk =   0.1600000
        k(   10) = (   0.4000000  -0.0000000   0.0000000), wk =   0.1600000
        k(   11) = (   0.4000000   0.2309401   0.0000000), wk =   0.1600000
        k(   12) = (   0.4000000  -0.6928203   0.0000000), wk =   0.1600000
        k(   13) = (   0.4000000  -0.4618802   0.0000000), wk =   0.1600000

     Check: negative core charge=   -0.000002

     Initial potential from superposition of free atoms

     starting charge  375.99373, renormalised to  376.00000

     negative rho (up, down):  1.158E-02 0.000E+00

     %%%%%%%%%%%%%%%%%%%%%%%%%%%%%%%%%%%%%%%%%%%%%%%%%%%%%%%%%%%%%%%%%%%%%%%%
     %                                                                      %
     % You are using vdW-DF, which was implemented by the Thonhauser group. %
     % Please cite the following two papers that made this development      %
     % possible and the two reviews that describe the various versions:     %
     %                                                                      %
     %   T. Thonhauser et al., PRL 115, 136402 (2015).                      %
     %   T. Thonhauser et al., PRB 76, 125112 (2007).                       %
     %   K. Berland et al., Rep. Prog. Phys. 78, 066501 (2015).             %
     %   D.C. Langreth et al., J. Phys.: Condens. Matter 21, 084203 (2009). %
     %                                                                      %
     %                                                                      %
     % If you are calculating the stress with vdW-DF, please also cite:     %
     %                                                                      %
     %   R. Sabatini et al., J. Phys.: Condens. Matter 24, 424209 (2012).   %
     %                                                                      %
     %%%%%%%%%%%%%%%%%%%%%%%%%%%%%%%%%%%%%%%%%%%%%%%%%%%%%%%%%%%%%%%%%%%%%%%%

     Starting wfcs are  340 randomized atomic wfcs
     Checking if some PAW data can be deallocated...

     Self-consistent Calculation

     iteration #  1     ecut=    60.00 Ry     beta= 0.70
     Davidson diagonalization with overlap
     ethr =  1.00E-02,  avg # of iterations =  2.2

[...]

     total energy              =  -27815.25289141 Ry
     estimated scf accuracy    <       4.27724979 Ry

[...]

     iteration #  5     ecut=    60.00 Ry     beta= 0.70
     Davidson diagonalization with overlap
     c_bands:  1 eigenvalues not converged
     ethr =  3.79E-05,  avg # of iterations = 13.6

[...]

     iteration # 15     ecut=    60.00 Ry     beta= 0.70
     Davidson diagonalization with overlap
     c_bands:  1 eigenvalues not converged
     ethr =  7.96E-08,  avg # of iterations =  6.2

[...]

     total energy              =  -27816.07652226 Ry
     estimated scf accuracy    <       0.00000386 Ry

     iteration # 21     ecut=    60.00 Ry     beta= 0.70
     Davidson diagonalization with overlap
     ethr =  1.03E-09,  avg # of iterations =  2.0

[...]

     End of self-consistent calculation

          k = 0.0000 0.0000 0.0000 ( 91953 PWs)   bands (ev):

   -13.9448 -10.5894  -8.2732  -6.7369  -5.9320  -5.4755  -5.0091  -4.8177
    -4.4378  -4.3850  -4.3566  -4.3404  -4.3386  -4.3248  -4.3107  -4.1344
    -3.8937  -3.8212  -3.8156  -3.8043  -3.7926  -3.7552  -3.6095  -3.5329
    -3.4008  -3.3683  -3.3603  -3.3397  -3.2928  -3.1755  -3.1539  -3.1339
    -3.1127  -3.0962  -3.0316  -3.0035  -2.9948  -2.9488  -2.9241  -2.9092
    -2.8867  -2.8628  -2.8413  -2.8360  -2.8043  -2.7925  -2.7265  -2.5192
    -2.4582  -2.3423  -2.3002  -2.2789  -2.2739  -2.2399  -2.2229  -2.2157
    -2.1812  -2.0584  -2.0185  -2.0025  -1.9887  -1.8657  -1.7601  -1.6177
    -1.5299  -1.4937  -1.4614  -1.4492  -1.4428  -1.4061  -1.3569  -1.2999
    -1.2881  -1.2750  -1.2688  -1.2640  -1.2484  -1.2466  -1.2345  -1.2166
    -1.2002  -1.1813  -1.1659  -1.1412  -1.1342  -1.0950  -1.0793  -1.0668
    -1.0346  -1.0124  -0.9470  -0.9075  -0.8949  -0.8834  -0.8486  -0.8395
    -0.8157  -0.8090  -0.8035  -0.7644  -0.7464  -0.7404  -0.7104  -0.6340
    -0.6244  -0.6226  -0.5926  -0.5826  -0.5814  -0.5486  -0.4947  -0.4362
    -0.4248  -0.4070  -0.2774  -0.2010  -0.1403  -0.0726  -0.0304   0.0057
     0.0454   0.0575   0.0751   0.0784   0.0873   0.1852   0.1920   0.2344
     0.2477   0.2863   0.2961   0.3205   0.3489   0.3629   0.3715   0.3930
     0.4382   0.5489   0.5612   0.5673   0.5912   0.7054   0.7305   0.7746
     0.7935   0.8098   0.8108   0.8484   0.8695   0.9039   1.0333   1.0439
     1.0534   1.0604   1.0973   1.1225   1.1284   1.1546   1.1844   1.2048
     1.2301   1.2486   1.2546   1.2582   1.2630   1.2739   1.2841   1.2926
     1.2992   1.3098   1.3547   1.3670   1.3751   1.4074   1.4267   1.4800
     1.4851   1.4939   1.5201   1.5296   1.5598   1.5775   1.6116   1.6141
     1.6245   1.6329   1.6388   1.6653   1.6819   1.6987   1.7298   1.7472
     1.7732   1.7775   1.8866   1.9230   1.9983   2.0372   2.0394   2.0543
     2.0601   2.0892   2.2934   2.4048   2.5468   2.5912   2.8337   2.9053
     2.9608   3.3023   3.8726   3.9628   4.6775   5.1779   5.2321   5.2403
     5.4579   5.7451   5.9284   6.4293   6.6460   6.8375   6.8657   6.8763
     6.9036   6.9215

[...]

          k = 0.4000-0.4619 0.0000 ( 91836 PWs)   bands (ev):

   -13.9444 -10.5909  -8.2531  -5.9566  -5.8065  -5.7517  -5.2056  -5.0057
    -4.7120  -4.5748  -4.4959  -4.0687  -4.0031  -3.8875  -3.8674  -3.7909
    -3.7426  -3.6929  -3.6482  -3.6232  -3.5747  -3.5352  -3.5264  -3.4979
    -3.4802  -3.4648  -3.4367  -3.3757  -3.3206  -3.2922  -3.2841  -3.2550
    -3.2199  -3.1408  -3.1183  -3.0375  -3.0145  -2.9792  -2.9290  -2.9029
    -2.8648  -2.8498  -2.8064  -2.6801  -2.6716  -2.6499  -2.5467  -2.4700
    -2.4512  -2.4133  -2.3438  -2.3006  -2.2551  -2.1851  -2.1596  -2.1136
    -2.0940  -2.0652  -2.0161  -1.9895  -1.9658  -1.9592  -1.9159  -1.8863
    -1.8437  -1.8263  -1.8059  -1.7925  -1.7627  -1.7508  -1.7028  -1.6655
    -1.6366  -1.5899  -1.5529  -1.4913  -1.4662  -1.4189  -1.3940  -1.3834
    -1.3756  -1.3422  -1.3220  -1.2685  -1.2292  -1.2092  -1.1824  -1.1549
    -1.1305  -1.0933  -1.0302  -1.0099  -0.9970  -0.9806  -0.9693  -0.8945
    -0.8559  -0.8250  -0.8102  -0.7912  -0.7617  -0.7359  -0.7147  -0.6942
    -0.6815  -0.6646  -0.6566  -0.6139  -0.5932  -0.5562  -0.5526  -0.5330
    -0.5237  -0.5179  -0.4948  -0.4548  -0.3952  -0.3067  -0.2756  -0.2112
    -0.1833  -0.1646  -0.1016  -0.0780  -0.0472  -0.0147  -0.0022   0.0393
     0.0498   0.0998   0.1137   0.1409   0.1656   0.2038   0.2487   0.3021
     0.3326   0.3509   0.3980   0.4433   0.4648   0.5016   0.5526   0.6104
     0.6229   0.6600   0.6686   0.7225   0.7557   0.7609   0.7903   0.8155
     0.8490   0.8792   0.9075   0.9482   0.9658   0.9834   1.0158   1.0364
     1.1024   1.1271   1.2149   1.2720   1.2908   1.4027   1.4316   1.4526
     1.4924   1.5305   1.5562   1.6178   1.6500   1.7175   1.7241   1.7549
     1.7769   1.7954   1.8092   1.8496   1.9126   1.9197   1.9359   1.9535
     1.9717   1.9907   2.0023   2.0861   2.1145   2.1652   2.2043   2.2310
     2.2420   2.2551   2.2929   2.3762   2.4676   2.7192   2.9152   2.9888
     3.1760   3.3782   3.4102   3.6189   3.7144   3.7787   3.8860   4.0301
     4.3232   4.3849   4.4003   4.6004   4.8450   4.9540   4.9759   5.0499
     5.1711   5.2682   5.2975   5.4591   5.7071   5.7554   5.8709   6.1118
     6.1862   6.4300

     the Fermi energy is     2.0142 ev

!    total energy              =  -27816.07652192 Ry

     total all-electron energy =  -1326876.134217 Ry
     estimated scf accuracy    <       0.00000082 Ry
     smearing contrib. (-TS)   =       0.00204722 Ry
     internal energy E=F+TS    =  -27816.07856914 Ry

     The total energy is F=E-TS. E is the sum of the following terms:
     one-electron contribution =  -28959.11559595 Ry
     hartree contribution      =   14784.80166481 Ry
     xc contribution           =    -907.39831770 Ry
     ewald contribution        =   12759.26949584 Ry
     one-center paw contrib.   =  -25493.63581614 Ry

     convergence has been achieved in  21 iterations

[...]

     Forces acting on atoms (cartesian axes, Ry/au):

     atom    1 type  1   force =    -0.00191999   -0.00123679   -0.00480116
     atom    2 type  1   force =     0.00186410   -0.00126514   -0.00445784
     atom    3 type  1   force =     0.00002378   -0.00092725   -0.00446046
     atom    4 type  1   force =     0.00006378   -0.00099369   -0.00203583
     atom    5 type  1   force =     0.00041880    0.00033004   -0.00341853
     atom    6 type  1   force =    -0.00033504    0.00015090   -0.00335798
     atom    7 type  1   force =     0.00044193    0.00069317   -0.00380179
     atom    8 type  1   force =    -0.00078308   -0.00194152   -0.00887786
     atom    9 type  1   force =    -0.00046535    0.00079157   -0.00352378
     atom   10 type  1   force =     0.00030987    0.00306137   -0.00128858
     atom   11 type  1   force =    -0.00141867    0.00086939    0.01202190
     atom   12 type  1   force =     0.00120831    0.00147385    0.01133722
     atom   13 type  1   force =    -0.00027111   -0.00205496    0.00741524
     atom   14 type  1   force =    -0.00017095    0.00107341    0.00223197
     atom   15 type  1   force =     0.00050861   -0.00201001    0.00687658
     atom   16 type  1   force =     0.00009073    0.00147007   -0.00388646
     atom   17 type  1   force =     0.00024322    0.00226751   -0.00516468
     atom   18 type  1   force =    -0.00038648    0.00319579    0.00813251
     atom   19 type  1   force =    -0.00021352   -0.00015327   -0.00012241
     atom   20 type  1   force =     0.00011833   -0.00022551   -0.00005367
     atom   21 type  1   force =    -0.00002228   -0.00033424   -0.00036176
     atom   22 type  1   force =    -0.00000538   -0.00016517    0.00035416
     atom   23 type  1   force =     0.00031439   -0.00006778    0.00014090
     atom   24 type  1   force =    -0.00018797   -0.00008092    0.00029069
     atom   25 type  1   force =     0.00028914   -0.00042922   -0.00021450
     atom   26 type  1   force =    -0.00001189    0.00000880    0.00029048
     atom   27 type  1   force =    -0.00022860   -0.00047285   -0.00014504
     atom   28 type  1   force =     0.00002580   -0.00011838    0.00022478
     atom   29 type  1   force =     0.00030847   -0.00010721    0.00035586
     atom   30 type  1   force =    -0.00004956   -0.00000930   -0.00031715
     atom   31 type  1   force =     0.00004561   -0.00051366    0.00053397
     atom   32 type  1   force =     0.00068076    0.00015348    0.00057399
     atom   33 type  1   force =    -0.00055212    0.00020687    0.00045637
     atom   34 type  1   force =     0.00035182   -0.00027449    0.00025749
     atom   35 type  1   force =     0.00009912   -0.00058918   -0.00001649
     atom   36 type  1   force =     0.00008105   -0.00033678    0.00037025
     atom   37 type  2   force =    -0.00123297   -0.00186191   -0.00049442
     atom   38 type  2   force =     0.00065301    0.00135023   -0.00081006
     atom   39 type  2   force =     0.00050463    0.00515720    0.00442474
     atom   40 type  3   force =    -0.00031595   -0.00039022   -0.00013901
     atom   41 type  3   force =     0.00045522   -0.00013647   -0.00004352
     atom   42 type  3   force =    -0.00065979   -0.00058213   -0.00044294
     atom   43 type  3   force =     0.00013019   -0.00497563   -0.00405320

     Total force =     0.010096     Total SCF correction =     0.002742
     SCF correction compared to forces is large: reduce conv_thr to get better values

[...]

     negative rho (up, down):  1.293E-02 0.000E+00

     negative rho (up, down):  1.293E-02 0.000E+00
 BEEFens 2000 ensemble energies
             -0.607527241499513E+02
             -0.361885346415534E+01
             -0.158492604613637E+02
              0.429820955371209E+02
             -0.221286591499841E+02
             -0.205403668448401E+02
             -0.352763256194721E+02
             -0.866053349301755E+02
             -0.465256266262297E+02
             -0.472847693845878E+02
             -0.369704232674665E+02
              0.227954216857614E+01
              0.408870731620061E+01
              0.759924390726178E+01
              0.266178458416840E+01
              0.475432441616019E+02
             -0.208916786316543E+02
             -0.230214183383080E+02
              0.193442984256316E+02
             -0.112487483751146E+03
              0.536871054652347E+02
             -0.289916943061825E+02
             -0.335216664444296E+01
             -0.114040691059110E+02
             -0.882785945954754E+01
             -0.464117702430306E+01
              0.883579888727354E+02
             -0.187417303436897E+02
             -0.901100683204163E+01
             -0.519137593175915E+02
              0.816051204088253E+02
             -0.187184474582826E+02
             -0.375447227216528E+02
              0.249331760863884E+02
             -0.283966921752574E+01
              0.164600439112284E+02
             -0.484097911793543E+01
              0.107900707617331E+02
              0.288962208425265E+02
             -0.103361447880332E+03
              0.558886923867169E+02
              0.142533436209734E+02
             -0.173800314705585E+01
             -0.361771820228347E+02
              0.123334591494358E+02
             -0.146877277836700E+02
              0.399059227443913E+02
              0.365087404499191E+02
             -0.308101125874014E+02
             -0.275539381264003E+02
             -0.328849656285308E+02
             -0.352531782238891E+02
              0.136693394184029E+02
             -0.491438008612708E+02
              0.115745406469696E+02
              0.623689217798830E+02
              0.636220496672595E+02
              0.356013347364957E+02
              0.154198489701541E+02
              0.270922238100964E+02
[...]
             -0.706941654720449E+02
             -0.887433518874900E+00
             -0.246864676236240E+01
             -0.883869854915304E+01
             -0.178869018375190E+01
             -0.653381469130401E+02
             -0.210603236924090E+02
              0.541418440351059E+01
              0.901095451891695E+01
              0.469385629942424E+02
             -0.398251299542331E+02
              0.657503823784491E+02
             -0.425595087035177E+02
              0.210721323869225E+02
              0.350787637445189E+02

 BEEF-vdW xc energy contributions
           1 :   -783.469628031101
           2 :    719.782557730669
           3 :   -609.421102967692
           4 :    479.365056450202
           5 :   -357.142269846544
           6 :    262.677235171282
           7 :   -203.717577665812
           8 :    175.764400541756
           9 :   -166.096779662257
          10 :    159.972707720520
          11 :   -146.466184567941
          12 :    121.737637291771
          13 :   -88.8854749675941
          14 :    55.0099025483352
          15 :   -27.1846093407080
          16 :    9.16407983073054
          17 :  -0.106854387491126
          18 :   -4.43727372861076
          19 :    10.0020166543379
          20 :   -20.4783459682528
          21 :    36.4405205526167
          22 :   -55.1798051315335
          23 :    72.2551959967672
          24 :   -83.7136276755103
          25 :    87.8882701902912
          26 :   -85.9864488374184
          27 :    81.2966390967832
          28 :   -77.4945944049902
          29 :    76.8993773506469
          30 :   -79.5030199525052
          31 :   -85.9897984468369
          32 :   -65.9186616907067

     Writing output data file ./pwscf.save/

     General routines

     Parallel routines

   This run was terminated on:  19:42: 2  23Jan2023

   JOB DONE.