     Program PWSCF v.6.7MaX starts on 20Dec2022 at 15:47:16

     Reading input from chch-ensemble.in
Warning: card &CELL ignored
Warning: card / ignored

     Current dimensions of program PWSCF are:
     Max number of different atomic species (ntypx) = 10
     Max number of k-points (npk) =  40000
     Max angular momentum in pseudopotentials (lmaxx) =  3
     file Pt.pbe-n-kjpaw_psl.1.0.0.UPF: wavefunction(s)  6S 5D renormalized
     file C.pbe-n-kjpaw_psl.1.0.0.UPF: wavefunction(s)  2S 2P renormalized
     file H.pbe-kjpaw_psl.1.0.0.UPF: wavefunction(s)  1S renormalized

     IMPORTANT: XC functional enforced from input :
     Exchange-correlation= BEEF-VDW
                           (   1   4  43  14   2   0   0)
     Any further DFT definition will be discarded
     Please, verify this is what you really want

     Subspace diagonalization in iterative solution of the eigenvalue problem:
     a serial algorithm will be used

     bravais-lattice index     =            0
     lattice parameter (alat)  =      16.0349  a.u.
     unit-cell volume          =   11100.8287 (a.u.)^3
     number of atoms/cell      =           40
     number of atomic types    =            3
     number of electrons       =       370.00
     number of Kohn-Sham states=          222
     kinetic-energy cutoff     =      60.0000  Ry
     charge density cutoff     =     240.0000  Ry
     scf convergence threshold =      1.0E-06
     mixing beta               =       0.7000
     number of iterations used =            8  local-TF  mixing
     Exchange-correlation= BEEF-VDW
                           (   1   4  43  14   2   0   0)

     celldm(1)=  16.034858  celldm(2)=   0.000000  celldm(3)=   0.000000
     celldm(4)=   0.000000  celldm(5)=   0.000000  celldm(6)=   0.000000

     crystal axes: (cart. coord. in units of alat)
               a(1) = (   1.000000   0.000000   0.000000 )
               a(2) = (   0.500000   0.866025   0.000000 )
               a(3) = (   0.000000   0.000000   3.109062 )

     reciprocal axes: (cart. coord. in units 2 pi/alat)
               b(1) = (  1.000000 -0.577350  0.000000 )
               b(2) = (  0.000000  1.154701  0.000000 )
               b(3) = (  0.000000  0.000000  0.321640 )

     PseudoPot. # 1 for Pt read from file:
     /users/bkreitz1/quantum-espresso/potentials/Pt.pbe-n-kjpaw_psl.1.0.0.UPF
     MD5 check sum: 04dc8a03c51ece93fc7b5889c2958091
     Pseudo is Projector augmented-wave + core cor, Zval = 10.0
     Generated using 'atomic' code by A. Dal Corso  v.6.7MaX
     Shape of augmentation charge: PSQ
     Using radial grid of 1277 points,  6 beta functions with:
                l(1) =   0
                l(2) =   0
                l(3) =   1
                l(4) =   1
                l(5) =   2
                l(6) =   2
     Q(r) pseudized with 0 coefficients

     PseudoPot. # 2 for C  read from file:
     /users/bkreitz1/quantum-espresso/potentials/C.pbe-n-kjpaw_psl.1.0.0.UPF
     MD5 check sum: a169b0ebad56f5ec0d79c4633f80bf22
     Pseudo is Projector augmented-wave + core cor, Zval =  4.0
     Generated using 'atomic' code by A. Dal Corso  v.6.7MaX
     Shape of augmentation charge: PSQ
     Using radial grid of 1073 points,  4 beta functions with:
                l(1) =   0
                l(2) =   0
                l(3) =   1
                l(4) =   1
     Q(r) pseudized with 0 coefficients

     PseudoPot. # 3 for H  read from file:
     /users/bkreitz1/quantum-espresso/potentials/H.pbe-kjpaw_psl.1.0.0.UPF
     MD5 check sum: ae98473e6dc62675f0d0baffdab24f65
     Pseudo is Projector augmented-wave, Zval =  1.0
     Generated using 'atomic' code by A. Dal Corso  v.6.7MaX
     Shape of augmentation charge: PSQ
     Using radial grid of  929 points,  2 beta functions with:
                l(1) =   0
                l(2) =   0
     Q(r) pseudized with 0 coefficients

     atomic species   valence    mass     pseudopotential
        Pt            10.00   195.08400     Pt( 1.00)
        C              4.00    12.01100     C ( 1.00)
        H              1.00     1.00800     H ( 1.00)

     No symmetry found

   Cartesian axes

     site n.     atom                  positions (alat units)
         1           Pt  tau(   1) = (   0.0000000   0.0000000   1.0017346  )
         2           Pt  tau(   2) = (   0.3333333   0.0000000   1.0017346  )
         3           Pt  tau(   3) = (   0.6666667   0.0000000   1.0017346  )
         4           Pt  tau(   4) = (   0.1666667   0.2886751   1.0017346  )
         5           Pt  tau(   5) = (   0.5000000   0.2886751   1.0017346  )
         6           Pt  tau(   6) = (   0.8333333   0.2886751   1.0017346  )
         7           Pt  tau(   7) = (   0.3333333   0.5773503   1.0017346  )
         8           Pt  tau(   8) = (   0.6666667   0.5773503   1.0017346  )
         9           Pt  tau(   9) = (   1.0000000   0.5773503   1.0017346  )
        10           Pt  tau(  10) = (   0.1666667   0.0962250   1.2739001  )
        11           Pt  tau(  11) = (   0.5000000   0.0962250   1.2739001  )
        12           Pt  tau(  12) = (   0.8333333   0.0962250   1.2739001  )
        13           Pt  tau(  13) = (   0.3333333   0.3849002   1.2739001  )
        14           Pt  tau(  14) = (   0.6666667   0.3849002   1.2739001  )
        15           Pt  tau(  15) = (   1.0000000   0.3849002   1.2739001  )
        16           Pt  tau(  16) = (   0.5000000   0.6735753   1.2739001  )
        17           Pt  tau(  17) = (   0.8333333   0.6735753   1.2739001  )
        18           Pt  tau(  18) = (   1.1666667   0.6735753   1.2739001  )
        19           Pt  tau(  19) = (   0.0021321   0.1965650   1.5454775  )
        20           Pt  tau(  20) = (   0.3331930   0.1966416   1.5448217  )
        21           Pt  tau(  21) = (   0.6642477   0.1965875   1.5454932  )
        22           Pt  tau(  22) = (   0.1674508   0.4838557   1.5460242  )
        23           Pt  tau(  23) = (   0.4989782   0.4838565   1.5460246  )
        24           Pt  tau(  24) = (   0.8332193   0.4838328   1.5412837  )
        25           Pt  tau(  25) = (   0.3332153   0.7680675   1.5512438  )
        26           Pt  tau(  26) = (   0.6665596   0.7736544   1.5415537  )
        27           Pt  tau(  27) = (   0.9999043   0.7736651   1.5415711  )
        28           Pt  tau(  28) = (   0.0003830   0.0098396   1.8181854  )
        29           Pt  tau(  29) = (   0.3330636   0.0087735   1.8166962  )
        30           Pt  tau(  30) = (   0.6657613   0.0098852   1.8182194  )
        31           Pt  tau(  31) = (   0.1597235   0.2944267   1.8295045  )
        32           Pt  tau(  32) = (   0.5062192   0.2944855   1.8296028  )
        33           Pt  tau(  33) = (   0.8330125   0.2964545   1.8171938  )
        34           Pt  tau(  34) = (   0.3330547   0.5938202   1.8388179  )
        35           Pt  tau(  35) = (   0.6706341   0.5890990   1.8134925  )
        36           Pt  tau(  36) = (   0.9954804   0.5891037   1.8134667  )
        37           C   tau(  37) = (   0.2511080   0.4155058   2.0118733  )
        38           C   tau(  38) = (   0.4145762   0.4154915   2.0118558  )
        39           H   tau(  39) = (   1.1764299   0.4505273   2.1099472  )
        40           H   tau(  40) = (   0.4892198   0.4503780   2.1111844  )

     number of k points=    13  Marzari-Vanderbilt smearing, width (Ry)=  0.0200
                       cart. coord. in units 2pi/alat
        k(    1) = (   0.0000000   0.0000000   0.0000000), wk =   0.0800000
        k(    2) = (   0.0000000   0.2309401   0.0000000), wk =   0.1600000
        k(    3) = (   0.0000000   0.4618802   0.0000000), wk =   0.1600000
        k(    4) = (   0.2000000  -0.1154701   0.0000000), wk =   0.1600000
        k(    5) = (   0.2000000   0.1154701   0.0000000), wk =   0.1600000
        k(    6) = (   0.2000000   0.3464102   0.0000000), wk =   0.1600000
        k(    7) = (   0.2000000  -0.5773503   0.0000000), wk =   0.1600000
        k(    8) = (   0.2000000  -0.3464102   0.0000000), wk =   0.1600000
        k(    9) = (   0.4000000  -0.2309401   0.0000000), wk =   0.1600000
        k(   10) = (   0.4000000  -0.0000000   0.0000000), wk =   0.1600000
        k(   11) = (   0.4000000   0.2309401   0.0000000), wk =   0.1600000
        k(   12) = (   0.4000000  -0.6928203   0.0000000), wk =   0.1600000
        k(   13) = (   0.4000000  -0.4618802   0.0000000), wk =   0.1600000

     Check: negative core charge=   -0.000001

     Initial potential from superposition of free atoms

     starting charge  369.99379, renormalised to  370.00000

     negative rho (up, down):  1.140E-02 0.000E+00

     %%%%%%%%%%%%%%%%%%%%%%%%%%%%%%%%%%%%%%%%%%%%%%%%%%%%%%%%%%%%%%%%%%%%%%%%
     %                                                                      %
     % You are using vdW-DF, which was implemented by the Thonhauser group. %
     % Please cite the following two papers that made this development      %
     % possible and the two reviews that describe the various versions:     %
     %                                                                      %
     %   T. Thonhauser et al., PRL 115, 136402 (2015).                      %
     %   T. Thonhauser et al., PRB 76, 125112 (2007).                       %
     %   K. Berland et al., Rep. Prog. Phys. 78, 066501 (2015).             %
     %   D.C. Langreth et al., J. Phys.: Condens. Matter 21, 084203 (2009). %
     %                                                                      %
     %                                                                      %
     % If you are calculating the stress with vdW-DF, please also cite:     %
     %                                                                      %
     %   R. Sabatini et al., J. Phys.: Condens. Matter 24, 424209 (2012).   %
     %                                                                      %
     %%%%%%%%%%%%%%%%%%%%%%%%%%%%%%%%%%%%%%%%%%%%%%%%%%%%%%%%%%%%%%%%%%%%%%%%

     Starting wfcs are  334 randomized atomic wfcs
     Checking if some PAW data can be deallocated...

     Self-consistent Calculation

     iteration #  1     ecut=    60.00 Ry     beta= 0.70
     Davidson diagonalization with overlap
     ethr =  1.00E-02,  avg # of iterations =  2.0

     Threshold (ethr) on eigenvalues was too large:
     Diagonalizing with lowered threshold

     Davidson diagonalization with overlap
     ethr =  7.06E-04,  avg # of iterations =  3.2

[...]

     total energy              =  -27794.32932968 Ry
     estimated scf accuracy    <       2.89151832 Ry

[...]

     iteration #  5     ecut=    60.00 Ry     beta= 0.70
     Davidson diagonalization with overlap
     c_bands:  1 eigenvalues not converged
     ethr =  3.97E-05,  avg # of iterations = 10.0

[...]

     iteration # 12     ecut=    60.00 Ry     beta= 0.70
     Davidson diagonalization with overlap
     c_bands:  2 eigenvalues not converged
     c_bands:  1 eigenvalues not converged
     ethr =  1.67E-07,  avg # of iterations =  4.8

[...]

     total energy              =  -27794.68103406 Ry
     estimated scf accuracy    <       0.00000134 Ry

     iteration # 19     ecut=    60.00 Ry     beta= 0.70
     Davidson diagonalization with overlap
     ethr =  3.63E-10,  avg # of iterations =  1.7

[...]

     End of self-consistent calculation

          k = 0.0000 0.0000 0.0000 ( 87183 PWs)   bands (ev):

   -13.2452  -7.9827  -6.6774  -5.9426  -5.3858  -4.4522  -4.3490  -4.3015
    -4.2703  -4.2636  -4.2341  -4.2296  -4.1872  -3.9392  -3.7825  -3.7703
    -3.7100  -3.7005  -3.6687  -3.5306  -3.4980  -3.4390  -3.2713  -3.2678
    -3.2251  -3.1764  -3.0889  -3.0474  -3.0375  -3.0337  -3.0167  -2.9264
    -2.8911  -2.8902  -2.8739  -2.8194  -2.7969  -2.7935  -2.7476  -2.7410
    -2.7191  -2.7150  -2.7140  -2.6263  -2.3681  -2.2981  -2.2163  -2.1843
    -2.1768  -2.1708  -2.1133  -2.1122  -2.0948  -2.0608  -1.9987  -1.9721
    -1.9142  -1.9048  -1.7871  -1.7571  -1.4835  -1.4712  -1.4048  -1.3742
    -1.3688  -1.3308  -1.3024  -1.2299  -1.2274  -1.1830  -1.1764  -1.1719
    -1.1642  -1.1545  -1.1381  -1.1181  -1.1129  -1.0829  -1.0808  -1.0609
    -1.0591  -1.0414  -1.0224  -0.9910  -0.9741  -0.9642  -0.9466  -0.9071
    -0.7872  -0.7821  -0.7636  -0.7398  -0.7132  -0.7044  -0.6885  -0.6717
    -0.6537  -0.6257  -0.6249  -0.5835  -0.5240  -0.5224  -0.4788  -0.4744
    -0.4616  -0.4526  -0.3770  -0.3688  -0.3441  -0.3298  -0.2982  -0.2844
    -0.1827   0.0035   0.0483   0.0826   0.0975   0.1663   0.1747   0.1780
     0.2122   0.2434   0.3084   0.3117   0.3175   0.3664   0.3838   0.4046
     0.4162   0.4317   0.4620   0.5416   0.5905   0.5964   0.6394   0.6711
     0.6772   0.7096   0.8328   0.8691   0.8899   0.9107   0.9109   0.9413
     0.9495   0.9807   1.0448   1.1045   1.1054   1.1162   1.1655   1.1961
     1.1983   1.2338   1.2620   1.2655   1.3389   1.3412   1.3558   1.3619
     1.3686   1.3721   1.3801   1.3962   1.4058   1.4467   1.4600   1.4729
     1.4742   1.4815   1.5404   1.5548   1.5835   1.5858   1.5964   1.6272
     1.6441   1.6683   1.7091   1.7223   1.7273   1.7287   1.7444   1.7532
     1.7649   1.7945   1.8003   1.8291   1.8408   1.8747   1.8889   1.9645
     2.0057   2.1186   2.1261   2.1305   2.1723   2.1765   2.1938   2.2344
     2.5963   2.6842   2.9762   3.0077   3.0540   3.0668   3.5064   4.1815
     4.8346   5.2358   5.3559   5.3639   5.7111   5.8319   6.0444   6.1558
     6.8212   6.8694   6.9526   6.9884   6.9934   7.0144

[...]

          k = 0.4000-0.4619 0.0000 ( 87110 PWs)   bands (ev):

   -13.2440  -7.9876  -5.9456  -5.7159  -5.6459  -5.1051  -4.5593  -4.5156
    -4.1467  -3.9326  -3.8690  -3.8137  -3.7648  -3.7044  -3.6400  -3.6004
    -3.5444  -3.5261  -3.4904  -3.4199  -3.4091  -3.3828  -3.3585  -3.3416
    -3.2554  -3.2192  -3.2093  -3.1880  -3.1720  -3.1498  -3.0516  -3.0202
    -2.9384  -2.9058  -2.8736  -2.8392  -2.7922  -2.7452  -2.7324  -2.6502
    -2.5949  -2.5398  -2.4991  -2.4317  -2.3861  -2.3514  -2.3050  -2.2438
    -2.2171  -2.1405  -2.1279  -2.0798  -2.0457  -2.0121  -1.9839  -1.9782
    -1.8956  -1.8700  -1.8583  -1.8239  -1.7971  -1.7585  -1.7378  -1.7267
    -1.6971  -1.6745  -1.6482  -1.6017  -1.5726  -1.5250  -1.4818  -1.4431
    -1.4016  -1.3450  -1.3271  -1.2928  -1.2574  -1.2427  -1.2325  -1.2065
    -1.1545  -1.1289  -1.0815  -1.0662  -1.0520  -1.0441  -0.9609  -0.9201
    -0.9101  -0.8914  -0.8726  -0.8312  -0.7807  -0.7326  -0.7149  -0.6837
    -0.6736  -0.6391  -0.6270  -0.6162  -0.5919  -0.5809  -0.5685  -0.5370
    -0.5172  -0.4796  -0.4627  -0.4526  -0.4392  -0.4128  -0.4075  -0.3893
    -0.3786  -0.2798  -0.2319  -0.1507  -0.1264  -0.0793  -0.0278   0.0184
     0.0336   0.0592   0.0993   0.1103   0.1404   0.1623   0.1810   0.2163
     0.2478   0.2757   0.2988   0.3494   0.4172   0.4252   0.4474   0.5116
     0.5384   0.5604   0.6253   0.6694   0.7285   0.7523   0.7749   0.7857
     0.8376   0.8556   0.8697   0.8832   0.9414   0.9678   0.9948   1.0094
     1.0541   1.0735   1.1055   1.1289   1.1834   1.2320   1.2714   1.3504
     1.3872   1.4232   1.5178   1.5464   1.5640   1.6078   1.6627   1.6788
     1.7060   1.7685   1.8064   1.8364   1.8565   1.8776   1.9091   1.9503
     1.9588   2.0111   2.0318   2.0456   2.0679   2.0726   2.1001   2.1154
     2.1770   2.2082   2.2454   2.3086   2.3270   2.3486   2.3836   2.4001
     2.4512   2.5510   2.7050   3.1343   3.2986   3.4854   3.4988   3.7155
     3.7211   3.8187   3.8908   4.1191   4.3523   4.4506   4.5663   4.6183
     4.8456   4.9982   5.0443   5.1827   5.2484   5.3704   5.3914   5.5314
     5.6628   5.8440   6.0000   6.3787   6.4538   6.5685

     the Fermi energy is     2.1176 ev

!    total energy              =  -27794.68103383 Ry

     total all-electron energy =  -1326796.974640 Ry
     estimated scf accuracy    <       0.00000065 Ry
     smearing contrib. (-TS)   =       0.00231137 Ry
     internal energy E=F+TS    =  -27794.68334520 Ry

     The total energy is F=E-TS. E is the sum of the following terms:
     one-electron contribution =  -25879.76756368 Ry
     hartree contribution      =   13244.65327202 Ry
     xc contribution           =    -901.11907026 Ry
     ewald contribution        =   11228.64063461 Ry
     one-center paw contrib.   =  -25487.09061790 Ry

     convergence has been achieved in  19 iterations

[...]

     Forces acting on atoms (cartesian axes, Ry/au):

     atom    1 type  1   force =     0.00137714   -0.00179093   -0.00477134
     atom    2 type  1   force =     0.00003569   -0.00083157   -0.00428554
     atom    3 type  1   force =    -0.00132645   -0.00181688   -0.00479879
     atom    4 type  1   force =    -0.00082176   -0.00096829   -0.00312479
     atom    5 type  1   force =     0.00086353   -0.00097442   -0.00311744
     atom    6 type  1   force =     0.00004904    0.00201645   -0.00587339
     atom    7 type  1   force =     0.00001169    0.00048526   -0.00304302
     atom    8 type  1   force =     0.00056425   -0.00060497   -0.00466767
     atom    9 type  1   force =    -0.00048584   -0.00061775   -0.00467818
     atom   10 type  1   force =    -0.00272097    0.00220648    0.00238134
     atom   11 type  1   force =     0.00266114    0.00219590    0.00242530
     atom   12 type  1   force =    -0.00005549   -0.00387852    0.00325190
     atom   13 type  1   force =    -0.00004401    0.00153661    0.00970735
     atom   14 type  1   force =     0.00048883   -0.00230640    0.00337284
     atom   15 type  1   force =    -0.00052862   -0.00230237    0.00336567
     atom   16 type  1   force =    -0.00437323    0.00281621    0.00684653
     atom   17 type  1   force =     0.00000499    0.00117475   -0.00020275
     atom   18 type  1   force =     0.00431889    0.00281460    0.00688828
     atom   19 type  1   force =    -0.00031061   -0.00026472   -0.00019488
     atom   20 type  1   force =     0.00003246   -0.00022394   -0.00003185
     atom   21 type  1   force =     0.00031933   -0.00028468   -0.00015391
     atom   22 type  1   force =     0.00018761   -0.00035277   -0.00015971
     atom   23 type  1   force =    -0.00020149   -0.00034296   -0.00017506
     atom   24 type  1   force =     0.00000706   -0.00024549   -0.00030326
     atom   25 type  1   force =    -0.00002054    0.00024170   -0.00006335
     atom   26 type  1   force =    -0.00017512    0.00016407   -0.00025153
     atom   27 type  1   force =     0.00016577    0.00017487   -0.00030288
     atom   28 type  1   force =     0.00006066    0.00045649    0.00058184
     atom   29 type  1   force =     0.00003795   -0.00017724    0.00016388
     atom   30 type  1   force =    -0.00009840    0.00039559    0.00055154
     atom   31 type  1   force =    -0.00016040    0.00038520    0.00018460
     atom   32 type  1   force =     0.00048932    0.00032886    0.00018305
     atom   33 type  1   force =     0.00003606    0.00047371    0.00000423
     atom   34 type  1   force =     0.00002413    0.00006563   -0.00007265
     atom   35 type  1   force =     0.00024052   -0.00013499    0.00045967
     atom   36 type  1   force =    -0.00021388   -0.00010451    0.00047087
     atom   37 type  2   force =    -0.00015091   -0.00027541   -0.00022908
     atom   38 type  2   force =     0.00460064    0.00262501    0.00786813
     atom   39 type  3   force =     0.00054640    0.00017076   -0.00024868
     atom   40 type  3   force =    -0.00543536   -0.00222936   -0.00795726

     Total force =     0.013861     Total SCF correction =     0.001623
     SCF correction compared to forces is large: reduce conv_thr to get better values

[...]

     negative rho (up, down):  1.264E-02 0.000E+00

     negative rho (up, down):  1.264E-02 0.000E+00
 BEEFens 2000 ensemble energies
             -0.602682887682079E+02
             -0.359769911122365E+01
             -0.157580901712718E+02
              0.426578545159449E+02
             -0.219811296071879E+02
             -0.204352127713268E+02
             -0.349166343442670E+02
             -0.858828638024420E+02
             -0.463055550172825E+02
             -0.470523771652097E+02
             -0.366967272698752E+02
              0.222083376394333E+01
              0.405039862907313E+01
              0.766503454616281E+01
              0.263209361952048E+01
              0.471939075455796E+02
             -0.207657545313558E+02
             -0.229836664514723E+02
              0.191573937307300E+02
             -0.111685187267728E+03
              0.532719777447009E+02
             -0.288661585674612E+02
             -0.330444959166092E+01
             -0.113517843795184E+02
             -0.887003958287232E+01
             -0.462196838880283E+01
              0.877278507591125E+02
             -0.185325945492167E+02
             -0.896131594897304E+01
             -0.514892518487397E+02
              0.811519968474574E+02
             -0.187238975252125E+02
             -0.372441717858961E+02
              0.248217049568013E+02
             -0.282140174793881E+01
              0.162171388811689E+02
             -0.487142059592509E+01
              0.108171432026593E+02
              0.285804698352643E+02
             -0.102662462879995E+03
              0.554864607866745E+02
              0.141556076229612E+02
             -0.162122060350907E+01
             -0.359723241654776E+02
              0.122423721642748E+02
             -0.145385542829504E+02
              0.395225933321914E+02
              0.362666360386442E+02
             -0.307032244645914E+02
             -0.273167112390888E+02
             -0.326510476282793E+02
             -0.349719256530965E+02
              0.134768873807344E+02
             -0.487647048821821E+02
              0.114455782023557E+02
              0.619203672281962E+02
              0.630438387836108E+02
              0.353800953210097E+02
              0.153116492117379E+02
              0.268307348262689E+02
[...]
             -0.701309079238533E+02
             -0.945246362127591E+00
             -0.247185461643188E+01
             -0.875605741078778E+01
             -0.181274135771957E+01
             -0.648721165646018E+02
             -0.210296972576721E+02
              0.530155184862276E+01
              0.888765893959814E+01
              0.465566610473264E+02
             -0.394964444160718E+02
              0.654114637531803E+02
             -0.422776462963203E+02
              0.208501378076159E+02
              0.347492299124112E+02

 BEEF-vdW xc energy contributions
           1 :   -778.297159952502
           2 :    715.484742039534
           3 :   -606.483588451950
           4 :    477.804116456558
           5 :   -356.652245175884
           6 :    262.823914341230
           7 :   -204.097892836138
           8 :    176.111078455553
           9 :   -166.312996982209
          10 :    160.098280492310
          11 :   -146.598560714226
          12 :    121.951037575625
          13 :   -89.1892397661900
          14 :    55.3533262333966
          15 :   -27.4915198471425
          16 :    9.37576722727056
          17 :  -0.210679798670299
          18 :   -4.40666853687208
          19 :    9.99031815241938
          20 :   -20.4488043966608
          21 :    36.3953709912711
          22 :   -55.1540261122748
          23 :    72.2908180531081
          24 :   -83.8307446254630
          25 :    88.0685816156072
          26 :   -86.1788875403191
          27 :    81.4432245260844
          28 :   -77.5598642913956
          29 :    76.8855187609952
          30 :   -79.4423775844026
          31 :   -85.2670464642943
          32 :   -65.4558721664337

     Writing output data file ./pwscf.save/

     General routines

     Parallel routines

   This run was terminated on:  19: 8:58  20Dec2022

   JOB DONE.