     Program PWSCF v.6.7MaX starts on  4Jan2023 at 10:23:42

     Reading input from chchch2-mono-ensemble.in
Warning: card &CELL ignored
Warning: card / ignored

     Current dimensions of program PWSCF are:
     Max number of different atomic species (ntypx) = 10
     Max number of k-points (npk) =  40000
     Max angular momentum in pseudopotentials (lmaxx) =  3
     file Pt.pbe-n-kjpaw_psl.1.0.0.UPF: wavefunction(s)  6S 5D renormalized
     file C.pbe-n-kjpaw_psl.1.0.0.UPF: wavefunction(s)  2S 2P renormalized
     file H.pbe-kjpaw_psl.1.0.0.UPF: wavefunction(s)  1S renormalized

     IMPORTANT: XC functional enforced from input :
     Exchange-correlation= BEEF-VDW
                           (   1   4  43  14   2   0   0)
     Any further DFT definition will be discarded
     Please, verify this is what you really want

     Subspace diagonalization in iterative solution of the eigenvalue problem:
     a serial algorithm will be used

     bravais-lattice index     =            0
     lattice parameter (alat)  =      16.0349  a.u.
     unit-cell volume          =   12581.4643 (a.u.)^3
     number of atoms/cell      =           43
     number of atomic types    =            3
     number of electrons       =       376.00
     number of Kohn-Sham states=          226
     kinetic-energy cutoff     =      60.0000  Ry
     charge density cutoff     =     240.0000  Ry
     scf convergence threshold =      1.0E-06
     mixing beta               =       0.7000
     number of iterations used =            8  local-TF  mixing
     Exchange-correlation= BEEF-VDW
                           (   1   4  43  14   2   0   0)

     celldm(1)=  16.034858  celldm(2)=   0.000000  celldm(3)=   0.000000
     celldm(4)=   0.000000  celldm(5)=   0.000000  celldm(6)=   0.000000

     crystal axes: (cart. coord. in units of alat)
               a(1) = (   1.000000   0.000000   0.000000 )
               a(2) = (   0.500000   0.866025   0.000000 )
               a(3) = (   0.000000   0.000000   3.523751 )

     reciprocal axes: (cart. coord. in units 2 pi/alat)
               b(1) = (  1.000000 -0.577350  0.000000 )
               b(2) = (  0.000000  1.154701  0.000000 )
               b(3) = (  0.000000  0.000000  0.283788 )

     PseudoPot. # 1 for Pt read from file:
     /users/bkreitz1/quantum-espresso/potentials/Pt.pbe-n-kjpaw_psl.1.0.0.UPF
     MD5 check sum: 04dc8a03c51ece93fc7b5889c2958091
     Pseudo is Projector augmented-wave + core cor, Zval = 10.0
     Generated using 'atomic' code by A. Dal Corso  v.6.7MaX
     Shape of augmentation charge: PSQ
     Using radial grid of 1277 points,  6 beta functions with:
                l(1) =   0
                l(2) =   0
                l(3) =   1
                l(4) =   1
                l(5) =   2
                l(6) =   2
     Q(r) pseudized with 0 coefficients

     PseudoPot. # 2 for C  read from file:
     /users/bkreitz1/quantum-espresso/potentials/C.pbe-n-kjpaw_psl.1.0.0.UPF
     MD5 check sum: a169b0ebad56f5ec0d79c4633f80bf22
     Pseudo is Projector augmented-wave + core cor, Zval =  4.0
     Generated using 'atomic' code by A. Dal Corso  v.6.7MaX
     Shape of augmentation charge: PSQ
     Using radial grid of 1073 points,  4 beta functions with:
                l(1) =   0
                l(2) =   0
                l(3) =   1
                l(4) =   1
     Q(r) pseudized with 0 coefficients

     PseudoPot. # 3 for H  read from file:
     /users/bkreitz1/quantum-espresso/potentials/H.pbe-kjpaw_psl.1.0.0.UPF
     MD5 check sum: ae98473e6dc62675f0d0baffdab24f65
     Pseudo is Projector augmented-wave, Zval =  1.0
     Generated using 'atomic' code by A. Dal Corso  v.6.7MaX
     Shape of augmentation charge: PSQ
     Using radial grid of  929 points,  2 beta functions with:
                l(1) =   0
                l(2) =   0
     Q(r) pseudized with 0 coefficients

     atomic species   valence    mass     pseudopotential
        Pt            10.00   195.08400     Pt( 1.00)
        C              4.00    12.01100     C ( 1.00)
        H              1.00     1.00800     H ( 1.00)

     No symmetry found

   Cartesian axes

     site n.     atom                  positions (alat units)
         1           Pt  tau(   1) = (   0.0000000   0.0000000   1.0017346  )
         2           Pt  tau(   2) = (   0.3333333   0.0000000   1.0017346  )
         3           Pt  tau(   3) = (   0.6666667   0.0000000   1.0017346  )
         4           Pt  tau(   4) = (   0.1666667   0.2886751   1.0017346  )
         5           Pt  tau(   5) = (   0.5000000   0.2886751   1.0017346  )
         6           Pt  tau(   6) = (   0.8333333   0.2886751   1.0017346  )
         7           Pt  tau(   7) = (   0.3333333   0.5773503   1.0017346  )
         8           Pt  tau(   8) = (   0.6666667   0.5773503   1.0017346  )
         9           Pt  tau(   9) = (   1.0000000   0.5773503   1.0017346  )
        10           Pt  tau(  10) = (   0.1666667   0.0962250   1.2739001  )
        11           Pt  tau(  11) = (   0.5000000   0.0962250   1.2739001  )
        12           Pt  tau(  12) = (   0.8333333   0.0962250   1.2739001  )
        13           Pt  tau(  13) = (   0.3333333   0.3849002   1.2739001  )
        14           Pt  tau(  14) = (   0.6666667   0.3849002   1.2739001  )
        15           Pt  tau(  15) = (   1.0000000   0.3849002   1.2739001  )
        16           Pt  tau(  16) = (   0.5000000   0.6735753   1.2739001  )
        17           Pt  tau(  17) = (   0.8333333   0.6735753   1.2739001  )
        18           Pt  tau(  18) = (   1.1666667   0.6735753   1.2739001  )
        19           Pt  tau(  19) = (  -0.0017320   0.1938624   1.5409414  )
        20           Pt  tau(  20) = (   0.3329939   0.1947305   1.5446255  )
        21           Pt  tau(  21) = (   0.6624150   0.1960866   1.5492162  )
        22           Pt  tau(  22) = (   0.1660076   0.4834712   1.5424094  )
        23           Pt  tau(  23) = (   0.4984939   0.4794298   1.5498638  )
        24           Pt  tau(  24) = (   0.8322868   0.4830673   1.5428767  )
        25           Pt  tau(  25) = (   0.3320918   0.7716325   1.5420853  )
        26           Pt  tau(  26) = (   0.6651378   0.7709735   1.5409277  )
        27           Pt  tau(  27) = (   0.9996199   0.7720962   1.5425013  )
        28           Pt  tau(  28) = (  -0.0011527   0.0047654   1.8172648  )
        29           Pt  tau(  29) = (   0.3304067   0.0023465   1.8138544  )
        30           Pt  tau(  30) = (   0.6675822   0.0025336   1.8181272  )
        31           Pt  tau(  31) = (   0.1627658   0.2931124   1.8136434  )
        32           Pt  tau(  32) = (   0.5018615   0.2951710   1.8405230  )
        33           Pt  tau(  33) = (   0.8355870   0.2936652   1.8169374  )
        34           Pt  tau(  34) = (   0.3309829   0.5847702   1.8179383  )
        35           Pt  tau(  35) = (   0.6671901   0.5846935   1.8170738  )
        36           Pt  tau(  36) = (   0.9991552   0.5823437   1.8172922  )
        37           C   tau(  37) = (   0.4751202   0.2754538   2.0630072  )
        38           C   tau(  38) = (   0.5768534   0.3264884   2.1866149  )
        39           C   tau(  39) = (   0.5361649   0.3017504   2.3393449  )
        40           H   tau(  40) = (   0.3672111   0.2178967   2.1027781  )
        41           H   tau(  41) = (   0.6865222   0.3854074   2.1575325  )
        42           H   tau(  42) = (   0.6111848   0.3395174   2.4355108  )
        43           H   tau(  43) = (   0.4268459   0.2429166   2.3709472  )

     number of k points=    13  Marzari-Vanderbilt smearing, width (Ry)=  0.0200
                       cart. coord. in units 2pi/alat
        k(    1) = (   0.0000000   0.0000000   0.0000000), wk =   0.0800000
        k(    2) = (   0.0000000   0.2309401   0.0000000), wk =   0.1600000
        k(    3) = (   0.0000000   0.4618802   0.0000000), wk =   0.1600000
        k(    4) = (   0.2000000  -0.1154701   0.0000000), wk =   0.1600000
        k(    5) = (   0.2000000   0.1154701   0.0000000), wk =   0.1600000
        k(    6) = (   0.2000000   0.3464102   0.0000000), wk =   0.1600000
        k(    7) = (   0.2000000  -0.5773503   0.0000000), wk =   0.1600000
        k(    8) = (   0.2000000  -0.3464102   0.0000000), wk =   0.1600000
        k(    9) = (   0.4000000  -0.2309401   0.0000000), wk =   0.1600000
        k(   10) = (   0.4000000  -0.0000000   0.0000000), wk =   0.1600000
        k(   11) = (   0.4000000   0.2309401   0.0000000), wk =   0.1600000
        k(   12) = (   0.4000000  -0.6928203   0.0000000), wk =   0.1600000
        k(   13) = (   0.4000000  -0.4618802   0.0000000), wk =   0.1600000

     Check: negative core charge=   -0.000002

     Initial potential from superposition of free atoms

     starting charge  375.99373, renormalised to  376.00000

     negative rho (up, down):  1.187E-02 0.000E+00

     %%%%%%%%%%%%%%%%%%%%%%%%%%%%%%%%%%%%%%%%%%%%%%%%%%%%%%%%%%%%%%%%%%%%%%%%
     %                                                                      %
     % You are using vdW-DF, which was implemented by the Thonhauser group. %
     % Please cite the following two papers that made this development      %
     % possible and the two reviews that describe the various versions:     %
     %                                                                      %
     %   T. Thonhauser et al., PRL 115, 136402 (2015).                      %
     %   T. Thonhauser et al., PRB 76, 125112 (2007).                       %
     %   K. Berland et al., Rep. Prog. Phys. 78, 066501 (2015).             %
     %   D.C. Langreth et al., J. Phys.: Condens. Matter 21, 084203 (2009). %
     %                                                                      %
     %                                                                      %
     % If you are calculating the stress with vdW-DF, please also cite:     %
     %                                                                      %
     %   R. Sabatini et al., J. Phys.: Condens. Matter 24, 424209 (2012).   %
     %                                                                      %
     %%%%%%%%%%%%%%%%%%%%%%%%%%%%%%%%%%%%%%%%%%%%%%%%%%%%%%%%%%%%%%%%%%%%%%%%

     Starting wfcs are  340 randomized atomic wfcs
     Checking if some PAW data can be deallocated...

     Self-consistent Calculation

     iteration #  1     ecut=    60.00 Ry     beta= 0.70
     Davidson diagonalization with overlap
     ethr =  1.00E-02,  avg # of iterations =  2.0

[...]

     total energy              =  -27815.35676574 Ry
     estimated scf accuracy    <       4.80586362 Ry

[...]

     iteration #  7     ecut=    60.00 Ry     beta= 0.70
     Davidson diagonalization with overlap
     c_bands:  2 eigenvalues not converged
     c_bands:  1 eigenvalues not converged
     c_bands:  3 eigenvalues not converged
     c_bands:  1 eigenvalues not converged
     c_bands:  1 eigenvalues not converged
     c_bands:  2 eigenvalues not converged
     c_bands:  1 eigenvalues not converged
     c_bands:  1 eigenvalues not converged
     c_bands:  1 eigenvalues not converged
     c_bands:  3 eigenvalues not converged
     c_bands:  2 eigenvalues not converged
     ethr =  5.27E-06,  avg # of iterations = 18.2

[...]

     iteration # 12     ecut=    60.00 Ry     beta= 0.70
     Davidson diagonalization with overlap
     c_bands:  3 eigenvalues not converged
     ethr =  4.42E-07,  avg # of iterations = 10.7

[...]

     total energy              =  -27816.07364138 Ry
     estimated scf accuracy    <       0.00000650 Ry

     iteration # 20     ecut=    60.00 Ry     beta= 0.70
     Davidson diagonalization with overlap
     ethr =  1.73E-09,  avg # of iterations =  4.2

[...]

     End of self-consistent calculation

          k = 0.0000 0.0000 0.0000 ( 98827 PWs)   bands (ev):

   -14.5512 -11.2251  -8.4359  -7.2647  -6.2751  -5.9176  -5.5017  -4.9232
    -4.8643  -4.8566  -4.8507  -4.8386  -4.8232  -4.8176  -4.8093  -4.3594
    -4.2974  -4.2927  -4.2892  -4.2799  -4.2752  -3.9593  -3.8635  -3.8378
    -3.8255  -3.8237  -3.8159  -3.7805  -3.6804  -3.6115  -3.6055  -3.6021
    -3.5979  -3.5591  -3.5166  -3.4443  -3.3982  -3.3844  -3.3819  -3.3806
    -3.3640  -3.3627  -3.3495  -3.3397  -3.3312  -3.2879  -3.2333  -3.0849
    -2.7640  -2.7534  -2.7457  -2.7274  -2.6952  -2.6868  -2.6822  -2.6732
    -2.6411  -2.5242  -2.5159  -2.4999  -2.4418  -2.3118  -1.9753  -1.9597
    -1.9504  -1.9379  -1.9219  -1.9158  -1.8582  -1.8023  -1.7815  -1.7577
    -1.7557  -1.7423  -1.7370  -1.7218  -1.7176  -1.7033  -1.6914  -1.6773
    -1.6753  -1.6513  -1.6448  -1.6214  -1.5635  -1.5425  -1.5291  -1.5201
    -1.5081  -1.3882  -1.3683  -1.3585  -1.3468  -1.3405  -1.3293  -1.3216
    -1.2981  -1.2965  -1.2384  -1.2338  -1.1665  -1.1628  -1.1511  -1.0959
    -1.0938  -1.0587  -1.0548  -1.0456  -0.9809  -0.9349  -0.9271  -0.9045
    -0.8893  -0.8841  -0.6113  -0.5286  -0.4882  -0.4571  -0.4213  -0.4103
    -0.3993  -0.3930  -0.3850  -0.3520  -0.3433  -0.3330  -0.2929  -0.2623
    -0.2309  -0.1464  -0.1418  -0.1228  -0.1076  -0.0610  -0.0337  -0.0135
     0.0002   0.0688   0.0901   0.0956   0.1134   0.2556   0.2679   0.3336
     0.3388   0.3458   0.3703   0.4004   0.4172   0.5541   0.5653   0.5858
     0.5988   0.6140   0.6548   0.6807   0.7020   0.7583   0.7613   0.7649
     0.7730   0.7882   0.7961   0.8001   0.8087   0.8187   0.8634   0.8679
     0.8816   0.8861   0.8980   0.9245   0.9669   0.9908   1.0046   1.0067
     1.0340   1.0374   1.0645   1.0766   1.0900   1.0923   1.1158   1.1546
     1.1569   1.1747   1.1829   1.1892   1.2040   1.2349   1.2717   1.2776
     1.2802   1.3062   1.3114   1.4618   1.4820   1.5683   1.5777   1.6055
     1.6147   1.6196   1.6346   1.8442   1.9171   2.3860   2.4582   2.4664
     2.4836   2.5059   2.6593   3.7078   4.6742   4.7385   4.7615   4.7726
     4.8278   5.0152   5.5122   5.7294   5.8931   6.2766   6.3633   6.3982
     6.4076   6.4159

[...]

          k = 0.4000-0.4619 0.0000 ( 98762 PWs)   bands (ev):

   -14.5512 -11.2248  -8.4357  -6.3849  -6.2990  -6.1416  -5.6713  -5.5060
    -5.0664  -5.0393  -4.5569  -4.5286  -4.3833  -4.3574  -4.2720  -4.2359
    -4.1477  -4.1274  -4.0996  -4.0413  -4.0347  -3.9900  -3.9766  -3.9630
    -3.9599  -3.9136  -3.8154  -3.7958  -3.7890  -3.7599  -3.7120  -3.6466
    -3.6244  -3.5984  -3.5326  -3.5085  -3.4364  -3.4004  -3.3854  -3.3704
    -3.3294  -3.3027  -3.2683  -3.1554  -3.1522  -3.0937  -2.9632  -2.9534
    -2.8567  -2.8209  -2.7764  -2.7646  -2.7230  -2.6495  -2.5897  -2.5830
    -2.5444  -2.5197  -2.4709  -2.4569  -2.4366  -2.3728  -2.3524  -2.3395
    -2.3157  -2.2988  -2.2806  -2.2738  -2.2398  -2.2105  -2.1158  -2.0928
    -2.0517  -2.0210  -1.9709  -1.9004  -1.8857  -1.8793  -1.8374  -1.8171
    -1.8074  -1.7712  -1.7439  -1.7079  -1.6624  -1.6568  -1.6284  -1.5726
    -1.5621  -1.5254  -1.4791  -1.4684  -1.4536  -1.4072  -1.3512  -1.3188
    -1.2897  -1.2635  -1.2427  -1.2244  -1.2067  -1.1995  -1.1800  -1.1648
    -1.1507  -1.1225  -1.1105  -1.0849  -1.0591  -1.0362  -1.0312  -1.0238
    -0.9951  -0.9849  -0.9742  -0.9441  -0.8857  -0.7745  -0.7343  -0.6549
    -0.6340  -0.5992  -0.5292  -0.5238  -0.4940  -0.4623  -0.4352  -0.4060
    -0.3900  -0.3632  -0.3261  -0.3082  -0.2681  -0.2471  -0.2220  -0.1522
    -0.1376  -0.1070  -0.0511   0.0183   0.0768   0.0991   0.1335   0.1671
     0.1950   0.2201   0.2612   0.2844   0.2887   0.3178   0.3344   0.3568
     0.4166   0.4322   0.4840   0.5129   0.5260   0.5368   0.5598   0.5690
     0.6473   0.7047   0.7598   0.8116   0.8811   0.9329   0.9777   0.9910
     1.0227   1.1009   1.1101   1.1415   1.2022   1.2504   1.2810   1.3006
     1.3289   1.3339   1.3467   1.3783   1.4103   1.4837   1.4872   1.4929
     1.5154   1.5398   1.5451   1.5603   1.6199   1.7053   1.7359   1.7614
     1.7753   1.7881   1.8318   1.8474   1.9325   1.9736   2.1100   2.5545
     2.9155   2.9205   3.0598   3.1624   3.2764   3.2886   3.3536   3.5060
     3.9199   3.9277   4.0237   4.3772   4.3942   4.5021   4.5176   4.5552
     4.7406   4.7979   4.8254   4.9801   5.2557   5.3067   5.4308   5.5695
     5.7247   5.8406

     the Fermi energy is     1.5439 ev

!    total energy              =  -27816.07364302 Ry

     total all-electron energy =  -1326876.131338 Ry
     estimated scf accuracy    <       0.00000098 Ry
     smearing contrib. (-TS)   =       0.00148403 Ry
     internal energy E=F+TS    =  -27816.07512705 Ry

     The total energy is F=E-TS. E is the sum of the following terms:
     one-electron contribution =  -32972.01741780 Ry
     hartree contribution      =   16785.00338786 Ry
     xc contribution           =    -907.30485017 Ry
     ewald contribution        =   14771.86501882 Ry
     one-center paw contrib.   =  -25493.62126576 Ry

     convergence has been achieved in  20 iterations

[...]

     Forces acting on atoms (cartesian axes, Ry/au):

     atom    1 type  1   force =     0.00118139    0.00069630   -0.00909621
     atom    2 type  1   force =    -0.00082107   -0.00033672   -0.00370595
     atom    3 type  1   force =     0.00086772   -0.00038256   -0.00290643
     atom    4 type  1   force =    -0.00036271   -0.00118850   -0.00379535
     atom    5 type  1   force =     0.00020020   -0.00024178   -0.00345824
     atom    6 type  1   force =     0.00052534   -0.00101302   -0.00336567
     atom    7 type  1   force =     0.00049406    0.00037695   -0.00283163
     atom    8 type  1   force =    -0.00025668    0.00028834   -0.00319645
     atom    9 type  1   force =     0.00007086   -0.00030822   -0.00331413
     atom   10 type  1   force =    -0.00148815   -0.00015612   -0.00342475
     atom   11 type  1   force =     0.00081459    0.00309266    0.00834290
     atom   12 type  1   force =    -0.00148680    0.00022461    0.00143151
     atom   13 type  1   force =     0.00234448    0.00083228    0.00888065
     atom   14 type  1   force =    -0.00327586   -0.00064684    0.01140771
     atom   15 type  1   force =    -0.00064865    0.00106900    0.00181147
     atom   16 type  1   force =    -0.00120044   -0.00027319    0.00152134
     atom   17 type  1   force =    -0.00010448    0.00026670    0.00178007
     atom   18 type  1   force =    -0.00018931    0.00082043    0.00208260
     atom   19 type  1   force =    -0.00029448    0.00042055   -0.00008328
     atom   20 type  1   force =     0.00003347    0.00020109    0.00064136
     atom   21 type  1   force =     0.00017642   -0.00000466    0.00040821
     atom   22 type  1   force =    -0.00008867   -0.00047467   -0.00020016
     atom   23 type  1   force =     0.00016759   -0.00048098   -0.00006840
     atom   24 type  1   force =     0.00019420   -0.00019963   -0.00067997
     atom   25 type  1   force =     0.00034981   -0.00002415   -0.00059056
     atom   26 type  1   force =     0.00002825   -0.00021946    0.00014342
     atom   27 type  1   force =    -0.00033471   -0.00051940   -0.00010347
     atom   28 type  1   force =     0.00045762   -0.00035247    0.00005709
     atom   29 type  1   force =     0.00016890   -0.00032950   -0.00024181
     atom   30 type  1   force =    -0.00008952   -0.00061305   -0.00028354
     atom   31 type  1   force =    -0.00007312   -0.00042054   -0.00014025
     atom   32 type  1   force =    -0.00019914   -0.00031819    0.00058129
     atom   33 type  1   force =     0.00056374   -0.00044090    0.00021131
     atom   34 type  1   force =     0.00014417   -0.00023952   -0.00013147
     atom   35 type  1   force =     0.00031269    0.00001104    0.00048961
     atom   36 type  1   force =    -0.00004918   -0.00041972    0.00025166
     atom   37 type  2   force =    -0.00211547   -0.00098867    0.00040772
     atom   38 type  2   force =     0.00037364    0.00051350    0.00049268
     atom   39 type  2   force =     0.00075733    0.00023473    0.00326516
     atom   40 type  3   force =     0.00012354    0.00020026   -0.00004128
     atom   41 type  3   force =    -0.00063885   -0.00057334    0.00063461
     atom   42 type  3   force =     0.00022794    0.00012066   -0.00074951
     atom   43 type  3   force =     0.00313935    0.00179669   -0.00243387

     Total force =     0.006650     Total SCF correction =     0.002034
     SCF correction compared to forces is large: reduce conv_thr to get better values

[...]

     negative rho (up, down):  1.353E-02 0.000E+00

     negative rho (up, down):  1.353E-02 0.000E+00
 BEEFens 2000 ensemble energies
             -0.607595692216913E+02
             -0.361117874906486E+01
             -0.158390010396765E+02
              0.429893338992364E+02
             -0.221427339877291E+02
             -0.205372767552939E+02
             -0.352983744266570E+02
             -0.866085756063885E+02
             -0.465131624763330E+02
             -0.472776802280339E+02
             -0.369727546644838E+02
              0.230609004873756E+01
              0.407598304544493E+01
              0.759566732319738E+01
              0.265795441024716E+01
              0.475427975532530E+02
             -0.208868312573964E+02
             -0.229906440760828E+02
              0.193356099774437E+02
             -0.112502889112081E+03
              0.536973763282732E+02
             -0.289864388878437E+02
             -0.334628730774267E+01
             -0.114141708801055E+02
             -0.880574930980060E+01
             -0.461343478544617E+01
              0.883633862618106E+02
             -0.187698730031180E+02
             -0.899400473151968E+01
             -0.519087580941909E+02
              0.815795985260995E+02
             -0.186933162655702E+02
             -0.375352783436625E+02
              0.249178009669002E+02
             -0.284566637797803E+01
              0.164698275812329E+02
             -0.483832649671933E+01
              0.107866912905009E+02
              0.289195323050541E+02
             -0.103345797286608E+03
              0.559036614972612E+02
              0.142546635703815E+02
             -0.176135213701411E+01
             -0.361616226912377E+02
              0.123338056500486E+02
             -0.147204206097420E+02
              0.399048431415279E+02
              0.365120611053381E+02
             -0.308018757628990E+02
             -0.275413766442158E+02
             -0.328817062183683E+02
             -0.352657018996110E+02
              0.137016330967804E+02
             -0.491314662269392E+02
              0.115857267152007E+02
              0.623833584385771E+02
              0.636431517867894E+02
              0.356200997632089E+02
              0.154103514660272E+02
              0.271105165987433E+02
[...]
             -0.707082574406091E+02
             -0.855401524419676E+00
             -0.247680607437494E+01
             -0.883486154707907E+01
             -0.180566960053665E+01
             -0.653420965804904E+02
             -0.210339872344827E+02
              0.542594766533684E+01
              0.903998553397560E+01
              0.469458645356482E+02
             -0.398235419688200E+02
              0.657394535365775E+02
             -0.425580452924706E+02
              0.210879911378689E+02
              0.350793117011420E+02

 BEEF-vdW xc energy contributions
           1 :   -783.332358324893
           2 :    719.415894135184
           3 :   -608.838364439367
           4 :    478.771818292466
           5 :   -356.754241530048
           6 :    262.591533474529
           7 :   -203.899819366750
           8 :    176.107216004840
           9 :   -166.489917842203
          10 :    160.345465462565
          11 :   -146.796789992973
          12 :    122.034893605877
          13 :   -89.1630263488574
          14 :    55.2675498130378
          15 :   -27.4088397390960
          16 :    9.34442132945742
          17 :  -0.252274738531696
          18 :   -4.29831490836273
          19 :    9.84294194657730
          20 :   -20.3013040230865
          21 :    36.2844335064825
          22 :   -55.1010163410198
          23 :    72.2922895863952
          24 :   -83.8559910393553
          25 :    88.0676866782469
          26 :   -86.1035104220953
          27 :    81.2704237744618
          28 :   -77.3077019126215
          29 :    76.6122514763789
          30 :   -79.2273126586119
          31 :   -85.9732934135194
          32 :   -65.8479537679488

     Writing output data file ./pwscf.save/

     General routines

     Parallel routines

   This run was terminated on:  14:34:14   4Jan2023

   JOB DONE.