     Program PWSCF v.6.7MaX starts on  4Jan2023 at 10: 7: 5

     Reading input from chcho-bi-ensemble.in
Warning: card &CELL ignored
Warning: card / ignored

     Current dimensions of program PWSCF are:
     Max number of different atomic species (ntypx) = 10
     Max number of k-points (npk) =  40000
     Max angular momentum in pseudopotentials (lmaxx) =  3
     file Pt.pbe-n-kjpaw_psl.1.0.0.UPF: wavefunction(s)  6S 5D renormalized
     file C.pbe-n-kjpaw_psl.1.0.0.UPF: wavefunction(s)  2S 2P renormalized
     file O.pbe-nl-kjpaw_psl.1.0.0.UPF: wavefunction(s)  2S 2P renormalized
     file H.pbe-kjpaw_psl.1.0.0.UPF: wavefunction(s)  1S renormalized

     IMPORTANT: XC functional enforced from input :
     Exchange-correlation= BEEF-VDW
                           (   1   4  43  14   2   0   0)
     Any further DFT definition will be discarded
     Please, verify this is what you really want

     Subspace diagonalization in iterative solution of the eigenvalue problem:
     a serial algorithm will be used

     bravais-lattice index     =            0
     lattice parameter (alat)  =      16.0349  a.u.
     unit-cell volume          =   10992.2919 (a.u.)^3
     number of atoms/cell      =           41
     number of atomic types    =            4
     number of electrons       =       376.00
     number of Kohn-Sham states=          226
     kinetic-energy cutoff     =      60.0000  Ry
     charge density cutoff     =     240.0000  Ry
     scf convergence threshold =      1.0E-06
     mixing beta               =       0.7000
     number of iterations used =            8  local-TF  mixing
     Exchange-correlation= BEEF-VDW
                           (   1   4  43  14   2   0   0)

     celldm(1)=  16.034858  celldm(2)=   0.000000  celldm(3)=   0.000000
     celldm(4)=   0.000000  celldm(5)=   0.000000  celldm(6)=   0.000000

     crystal axes: (cart. coord. in units of alat)
               a(1) = (   1.000000   0.000000   0.000000 )
               a(2) = (   0.500000   0.866025   0.000000 )
               a(3) = (   0.000000   0.000000   3.078664 )

     reciprocal axes: (cart. coord. in units 2 pi/alat)
               b(1) = (  1.000000 -0.577350  0.000000 )
               b(2) = (  0.000000  1.154701  0.000000 )
               b(3) = (  0.000000  0.000000  0.324816 )

     PseudoPot. # 1 for Pt read from file:
     /users/bkreitz1/quantum-espresso/potentials/Pt.pbe-n-kjpaw_psl.1.0.0.UPF
     MD5 check sum: 04dc8a03c51ece93fc7b5889c2958091
     Pseudo is Projector augmented-wave + core cor, Zval = 10.0
     Generated using 'atomic' code by A. Dal Corso  v.6.7MaX
     Shape of augmentation charge: PSQ
     Using radial grid of 1277 points,  6 beta functions with:
                l(1) =   0
                l(2) =   0
                l(3) =   1
                l(4) =   1
                l(5) =   2
                l(6) =   2
     Q(r) pseudized with 0 coefficients

     PseudoPot. # 2 for C  read from file:
     /users/bkreitz1/quantum-espresso/potentials/C.pbe-n-kjpaw_psl.1.0.0.UPF
     MD5 check sum: a169b0ebad56f5ec0d79c4633f80bf22
     Pseudo is Projector augmented-wave + core cor, Zval =  4.0
     Generated using 'atomic' code by A. Dal Corso  v.6.7MaX
     Shape of augmentation charge: PSQ
     Using radial grid of 1073 points,  4 beta functions with:
                l(1) =   0
                l(2) =   0
                l(3) =   1
                l(4) =   1
     Q(r) pseudized with 0 coefficients

     PseudoPot. # 3 for O  read from file:
     /users/bkreitz1/quantum-espresso/potentials/O.pbe-nl-kjpaw_psl.1.0.0.UPF
     MD5 check sum: eef08af8b58d9ec80f8fdb78829eb7cf
     Pseudo is Projector augmented-wave + core cor, Zval =  6.0
     Generated using 'atomic' code by A. Dal Corso  v.6.7MaX
     Shape of augmentation charge: PSQ
     Using radial grid of 1095 points,  4 beta functions with:
                l(1) =   0
                l(2) =   0
                l(3) =   1
                l(4) =   1
     Q(r) pseudized with 0 coefficients

     PseudoPot. # 4 for H  read from file:
     /users/bkreitz1/quantum-espresso/potentials/H.pbe-kjpaw_psl.1.0.0.UPF
     MD5 check sum: ae98473e6dc62675f0d0baffdab24f65
     Pseudo is Projector augmented-wave, Zval =  1.0
     Generated using 'atomic' code by A. Dal Corso  v.6.7MaX
     Shape of augmentation charge: PSQ
     Using radial grid of  929 points,  2 beta functions with:
                l(1) =   0
                l(2) =   0
     Q(r) pseudized with 0 coefficients

     atomic species   valence    mass     pseudopotential
        Pt            10.00   195.08400     Pt( 1.00)
        C              4.00    12.01100     C ( 1.00)
        O              6.00    15.99900     O ( 1.00)
        H              1.00     1.00800     H ( 1.00)

     No symmetry found

   Cartesian axes

     site n.     atom                  positions (alat units)
         1           Pt  tau(   1) = (   0.0000000   0.0000000   1.0017346  )
         2           Pt  tau(   2) = (   0.3333333   0.0000000   1.0017346  )
         3           Pt  tau(   3) = (   0.6666667   0.0000000   1.0017346  )
         4           Pt  tau(   4) = (   0.1666667   0.2886751   1.0017346  )
         5           Pt  tau(   5) = (   0.5000000   0.2886751   1.0017346  )
         6           Pt  tau(   6) = (   0.8333333   0.2886751   1.0017346  )
         7           Pt  tau(   7) = (   0.3333333   0.5773503   1.0017346  )
         8           Pt  tau(   8) = (   0.6666667   0.5773503   1.0017346  )
         9           Pt  tau(   9) = (   1.0000000   0.5773503   1.0017346  )
        10           Pt  tau(  10) = (   0.1666667   0.0962250   1.2739001  )
        11           Pt  tau(  11) = (   0.5000000   0.0962250   1.2739001  )
        12           Pt  tau(  12) = (   0.8333333   0.0962250   1.2739001  )
        13           Pt  tau(  13) = (   0.3333333   0.3849002   1.2739001  )
        14           Pt  tau(  14) = (   0.6666667   0.3849002   1.2739001  )
        15           Pt  tau(  15) = (   1.0000000   0.3849002   1.2739001  )
        16           Pt  tau(  16) = (   0.5000000   0.6735753   1.2739001  )
        17           Pt  tau(  17) = (   0.8333333   0.6735753   1.2739001  )
        18           Pt  tau(  18) = (   1.1666667   0.6735753   1.2739001  )
        19           Pt  tau(  19) = (   0.0009213   0.1938926   1.5430898  )
        20           Pt  tau(  20) = (   0.3335715   0.1945509   1.5461926  )
        21           Pt  tau(  21) = (   0.6626498   0.1940181   1.5471407  )
        22           Pt  tau(  22) = (   0.1679150   0.4816398   1.5459715  )
        23           Pt  tau(  23) = (   0.4997627   0.4817709   1.5451223  )
        24           Pt  tau(  24) = (   0.8342499   0.4813504   1.5404155  )
        25           Pt  tau(  25) = (   0.3318947   0.7670434   1.5471517  )
        26           Pt  tau(  26) = (   0.6665554   0.7718794   1.5404651  )
        27           Pt  tau(  27) = (   1.0000892   0.7707990   1.5411947  )
        28           Pt  tau(  28) = (  -0.0012724  -0.0001689   1.8160481  )
        29           Pt  tau(  29) = (   0.3363471   0.0022168   1.8153096  )
        30           Pt  tau(  30) = (   0.6675084   0.0026549   1.8191291  )
        31           Pt  tau(  31) = (   0.1567924   0.2848307   1.8185926  )
        32           Pt  tau(  32) = (   0.5032680   0.2939075   1.8337595  )
        33           Pt  tau(  33) = (   0.8305885   0.2907233   1.8159033  )
        34           Pt  tau(  34) = (   0.3385116   0.5813583   1.8327261  )
        35           Pt  tau(  35) = (   0.6758189   0.5844997   1.8106167  )
        36           Pt  tau(  36) = (   1.0016056   0.5819530   1.8147109  )
        37           C   tau(  37) = (   0.4209458   0.4373985   2.0171033  )
        38           C   tau(  38) = (   0.2982589   0.3765691   2.1171029  )
        39           O   tau(  39) = (   0.1769034   0.3028991   2.0731408  )
        40           H   tau(  40) = (   0.5162532   0.4914701   2.0840282  )
        41           H   tau(  41) = (   0.3090796   0.3952834   2.2459417  )

     number of k points=    13  Marzari-Vanderbilt smearing, width (Ry)=  0.0200
                       cart. coord. in units 2pi/alat
        k(    1) = (   0.0000000   0.0000000   0.0000000), wk =   0.0800000
        k(    2) = (   0.0000000   0.2309401   0.0000000), wk =   0.1600000
        k(    3) = (   0.0000000   0.4618802   0.0000000), wk =   0.1600000
        k(    4) = (   0.2000000  -0.1154701   0.0000000), wk =   0.1600000
        k(    5) = (   0.2000000   0.1154701   0.0000000), wk =   0.1600000
        k(    6) = (   0.2000000   0.3464102   0.0000000), wk =   0.1600000
        k(    7) = (   0.2000000  -0.5773503   0.0000000), wk =   0.1600000
        k(    8) = (   0.2000000  -0.3464102   0.0000000), wk =   0.1600000
        k(    9) = (   0.4000000  -0.2309401   0.0000000), wk =   0.1600000
        k(   10) = (   0.4000000  -0.0000000   0.0000000), wk =   0.1600000
        k(   11) = (   0.4000000   0.2309401   0.0000000), wk =   0.1600000
        k(   12) = (   0.4000000  -0.6928203   0.0000000), wk =   0.1600000
        k(   13) = (   0.4000000  -0.4618802   0.0000000), wk =   0.1600000

     Check: negative core charge=   -0.000002

     Initial potential from superposition of free atoms

     starting charge  375.99379, renormalised to  376.00000

     negative rho (up, down):  1.125E-02 0.000E+00

     %%%%%%%%%%%%%%%%%%%%%%%%%%%%%%%%%%%%%%%%%%%%%%%%%%%%%%%%%%%%%%%%%%%%%%%%
     %                                                                      %
     % You are using vdW-DF, which was implemented by the Thonhauser group. %
     % Please cite the following two papers that made this development      %
     % possible and the two reviews that describe the various versions:     %
     %                                                                      %
     %   T. Thonhauser et al., PRL 115, 136402 (2015).                      %
     %   T. Thonhauser et al., PRB 76, 125112 (2007).                       %
     %   K. Berland et al., Rep. Prog. Phys. 78, 066501 (2015).             %
     %   D.C. Langreth et al., J. Phys.: Condens. Matter 21, 084203 (2009). %
     %                                                                      %
     %                                                                      %
     % If you are calculating the stress with vdW-DF, please also cite:     %
     %                                                                      %
     %   R. Sabatini et al., J. Phys.: Condens. Matter 24, 424209 (2012).   %
     %                                                                      %
     %%%%%%%%%%%%%%%%%%%%%%%%%%%%%%%%%%%%%%%%%%%%%%%%%%%%%%%%%%%%%%%%%%%%%%%%

     Starting wfcs are  338 randomized atomic wfcs
     Checking if some PAW data can be deallocated...

     Self-consistent Calculation

     iteration #  1     ecut=    60.00 Ry     beta= 0.70
     Davidson diagonalization with overlap
     ethr =  1.00E-02,  avg # of iterations =  2.1

     Threshold (ethr) on eigenvalues was too large:
     Diagonalizing with lowered threshold

     Davidson diagonalization with overlap
     ethr =  9.51E-04,  avg # of iterations =  2.4

[...]

     total energy              =  -27836.72940597 Ry
     estimated scf accuracy    <       3.78837459 Ry

[...]

     iteration #  4     ecut=    60.00 Ry     beta= 0.70
     Davidson diagonalization with overlap
     c_bands:  1 eigenvalues not converged
     ethr =  9.57E-05,  avg # of iterations = 11.6

[...]

     iteration #  8     ecut=    60.00 Ry     beta= 0.70
     Davidson diagonalization with overlap
     c_bands:  1 eigenvalues not converged
     c_bands:  2 eigenvalues not converged
     ethr =  1.15E-06,  avg # of iterations =  5.6

[...]

     total energy              =  -27837.16231941 Ry
     estimated scf accuracy    <       0.00000205 Ry

     iteration # 19     ecut=    60.00 Ry     beta= 0.70
     Davidson diagonalization with overlap
     ethr =  5.44E-10,  avg # of iterations =  1.1

[...]

     End of self-consistent calculation

          k = 0.0000 0.0000 0.0000 ( 86281 PWs)   bands (ev):

   -19.9981 -11.9139  -7.8459  -6.5360  -5.6397  -5.2894  -5.0581  -4.2350
    -4.1793  -4.1647  -4.1483  -4.1440  -4.1394  -4.1007  -4.0918  -3.8598
    -3.6645  -3.6050  -3.5898  -3.5747  -3.5598  -3.5472  -3.3758  -3.1566
    -3.1435  -3.1236  -3.1115  -3.0992  -2.9738  -2.9210  -2.9147  -2.9064
    -2.8736  -2.8575  -2.7848  -2.7190  -2.7116  -2.7075  -2.6953  -2.6888
    -2.6744  -2.6393  -2.6313  -2.6249  -2.6115  -2.6019  -2.2600  -2.1428
    -2.0934  -2.0840  -2.0664  -2.0550  -2.0515  -1.9874  -1.9789  -1.9643
    -1.8868  -1.8661  -1.7979  -1.7875  -1.7548  -1.4402  -1.4055  -1.3002
    -1.2680  -1.2466  -1.2238  -1.1875  -1.1320  -1.1133  -1.0893  -1.0718
    -1.0624  -1.0501  -1.0491  -1.0390  -1.0294  -1.0002  -0.9968  -0.9838
    -0.9829  -0.9686  -0.9503  -0.9329  -0.9255  -0.8503  -0.8407  -0.8317
    -0.8180  -0.6945  -0.6823  -0.6737  -0.6492  -0.6313  -0.6089  -0.5987
    -0.5818  -0.5760  -0.5477  -0.5173  -0.5070  -0.4894  -0.4820  -0.4175
    -0.3924  -0.3793  -0.3521  -0.3467  -0.3066  -0.2399  -0.2158  -0.1963
    -0.1892  -0.1166  -0.0445   0.0531   0.1806   0.2406   0.2503   0.2804
     0.2886   0.3027   0.3134   0.3537   0.3630   0.4103   0.4342   0.4673
     0.4836   0.5178   0.5524   0.5602   0.5964   0.6143   0.6450   0.6785
     0.7181   0.7788   0.7895   0.7910   0.8015   0.9650   0.9931   1.0172
     1.0291   1.0309   1.0404   1.0846   1.0986   1.1618   1.2694   1.2860
     1.2958   1.3168   1.3194   1.3436   1.3922   1.4122   1.4319   1.4695
     1.4810   1.4852   1.4913   1.4987   1.5044   1.5122   1.5317   1.5504
     1.5776   1.5806   1.5995   1.6102   1.6144   1.6826   1.6911   1.7100
     1.7149   1.7257   1.7574   1.7764   1.7786   1.7939   1.8498   1.8533
     1.8564   1.8692   1.8750   1.8928   1.9128   1.9458   1.9634   1.9776
     1.9936   2.0095   2.1137   2.1217   2.2062   2.2508   2.2635   2.3006
     2.3025   2.3239   2.3265   2.3846   2.7730   3.1159   3.1814   3.2030
     3.2050   3.4367   3.6389   4.9150   5.2715   5.4754   5.4994   5.5287
     5.8654   6.2857   6.3716   6.6714   7.0775   7.1068   7.1145   7.1375
     7.1818   7.2639

[...]

          k = 0.4000-0.4619 0.0000 ( 86284 PWs)   bands (ev):

   -19.9981 -11.9136  -7.8300  -5.6617  -5.5929  -5.5706  -5.1167  -4.9224
    -4.3970  -4.3376  -3.9021  -3.8332  -3.7774  -3.6739  -3.6411  -3.5832
    -3.5317  -3.4683  -3.4223  -3.4195  -3.3377  -3.3081  -3.2898  -3.2689
    -3.2624  -3.2379  -3.1741  -3.1062  -3.0973  -3.0856  -3.0491  -3.0353
    -2.9818  -2.9058  -2.8276  -2.7811  -2.7473  -2.7173  -2.6829  -2.6505
    -2.6349  -2.5827  -2.4775  -2.4582  -2.4091  -2.2782  -2.2610  -2.2062
    -2.1671  -2.1312  -2.0854  -2.0293  -1.9552  -1.9370  -1.9035  -1.8740
    -1.8483  -1.8145  -1.7973  -1.7562  -1.7103  -1.6870  -1.6740  -1.6425
    -1.6215  -1.6028  -1.5901  -1.5557  -1.5442  -1.5148  -1.4314  -1.3986
    -1.3453  -1.3338  -1.2838  -1.2353  -1.1901  -1.1690  -1.1468  -1.1253
    -1.1017  -1.0873  -1.0763  -1.0208  -0.9814  -0.9559  -0.9245  -0.8898
    -0.8461  -0.8252  -0.7948  -0.7664  -0.7581  -0.7349  -0.6995  -0.6136
    -0.5933  -0.5728  -0.5347  -0.5278  -0.5089  -0.4902  -0.4756  -0.4557
    -0.4451  -0.4314  -0.4172  -0.3824  -0.3578  -0.3411  -0.3213  -0.3054
    -0.2929  -0.2785  -0.2677  -0.2184  -0.1670  -0.0447  -0.0206   0.0410
     0.0635   0.0984   0.1482   0.1713   0.2270   0.2423   0.2521   0.2722
     0.3053   0.3285   0.3598   0.3766   0.4237   0.4493   0.4710   0.5315
     0.5590   0.5966   0.6505   0.7029   0.7453   0.7658   0.8302   0.8630
     0.8720   0.9064   0.9347   0.9675   0.9949   1.0007   1.0307   1.0663
     1.0929   1.1278   1.1482   1.1818   1.2083   1.2376   1.2601   1.2804
     1.3281   1.3966   1.4563   1.5114   1.5355   1.6339   1.6737   1.6805
     1.7164   1.7946   1.8112   1.8507   1.9053   1.9330   1.9729   2.0080
     2.0197   2.0334   2.0453   2.0806   2.1313   2.1648   2.1819   2.1924
     2.2090   2.2324   2.2431   2.2972   2.3405   2.3803   2.4275   2.4502
     2.4666   2.5027   2.5211   2.6353   2.6524   2.7059   2.8294   3.3369
     3.6084   3.6220   3.8490   3.9321   3.9632   3.9762   4.0765   4.3730
     4.5820   4.6240   4.7534   5.0287   5.0953   5.1831   5.2150   5.3573
     5.4998   5.5404   5.6130   5.8008   5.9805   6.0748   6.1918   6.5135
     6.6643   6.7264

     the Fermi energy is     2.2437 ev

!    total energy              =  -27837.16231842 Ry

     total all-electron energy =  -1326948.302820 Ry
     estimated scf accuracy    <       0.00000098 Ry
     smearing contrib. (-TS)   =      -0.00045784 Ry
     internal energy E=F+TS    =  -27837.16186058 Ry

     The total energy is F=E-TS. E is the sum of the following terms:
     one-electron contribution =  -25405.79017508 Ry
     hartree contribution      =   13012.51287238 Ry
     xc contribution           =    -908.81387571 Ry
     ewald contribution        =   10962.14801846 Ry
     one-center paw contrib.   =  -25497.21870061 Ry

     convergence has been achieved in  19 iterations

[...]

     Forces acting on atoms (cartesian axes, Ry/au):

     atom    1 type  1   force =     0.00137285   -0.00171364   -0.00547378
     atom    2 type  1   force =     0.00019667   -0.00019318   -0.00407097
     atom    3 type  1   force =    -0.00071375   -0.00054211   -0.00699972
     atom    4 type  1   force =    -0.00103375   -0.00072418   -0.00371882
     atom    5 type  1   force =     0.00147669   -0.00121422   -0.00296472
     atom    6 type  1   force =    -0.00061165    0.00195310   -0.00572786
     atom    7 type  1   force =    -0.00024415    0.00165750   -0.00302698
     atom    8 type  1   force =     0.00020185   -0.00008820   -0.00451287
     atom    9 type  1   force =     0.00007511    0.00001380   -0.00412247
     atom   10 type  1   force =    -0.00110936    0.00225335    0.00082128
     atom   11 type  1   force =     0.00236941    0.00257601    0.00652775
     atom   12 type  1   force =    -0.00064357   -0.00006448    0.00537505
     atom   13 type  1   force =    -0.00080283   -0.00015294    0.00963656
     atom   14 type  1   force =    -0.00074029   -0.00353668    0.00373613
     atom   15 type  1   force =     0.00106969   -0.00163445    0.00108587
     atom   16 type  1   force =    -0.00361656    0.00148090    0.00368305
     atom   17 type  1   force =    -0.00016914    0.00029279   -0.00102520
     atom   18 type  1   force =     0.00313990    0.00129510    0.00637194
     atom   19 type  1   force =    -0.00003057   -0.00003946    0.00017764
     atom   20 type  1   force =    -0.00015659   -0.00000793    0.00003863
     atom   21 type  1   force =     0.00007523   -0.00012374    0.00030530
     atom   22 type  1   force =    -0.00009359    0.00003559    0.00014704
     atom   23 type  1   force =    -0.00002518   -0.00002768    0.00039602
     atom   24 type  1   force =     0.00002774   -0.00031693    0.00003485
     atom   25 type  1   force =    -0.00010070    0.00019777    0.00032996
     atom   26 type  1   force =    -0.00007711    0.00000813    0.00007420
     atom   27 type  1   force =    -0.00001019   -0.00002321    0.00011009
     atom   28 type  1   force =     0.00007543    0.00029137    0.00024872
     atom   29 type  1   force =    -0.00028707    0.00007214    0.00010978
     atom   30 type  1   force =    -0.00020966   -0.00011733    0.00083152
     atom   31 type  1   force =     0.00026381    0.00027552    0.00015041
     atom   32 type  1   force =    -0.00031118    0.00051771    0.00068468
     atom   33 type  1   force =     0.00021374   -0.00028479    0.00023953
     atom   34 type  1   force =     0.00043804   -0.00032735    0.00057002
     atom   35 type  1   force =    -0.00010767   -0.00013722    0.00048236
     atom   36 type  1   force =    -0.00002422   -0.00017842   -0.00011303
     atom   37 type  2   force =     0.00024789    0.00044070   -0.00055252
     atom   38 type  2   force =    -0.00001859   -0.00108332    0.01005982
     atom   39 type  3   force =     0.00091289    0.00039852    0.00088803
     atom   40 type  4   force =    -0.00068953    0.00037510    0.00003600
     atom   41 type  4   force =    -0.00033002   -0.00160365   -0.01084328

     Total force =     0.015145     Total SCF correction =     0.001633
     SCF correction compared to forces is large: reduce conv_thr to get better values

[...]

     negative rho (up, down):  1.245E-02 0.000E+00

     negative rho (up, down):  1.245E-02 0.000E+00
 BEEFens 2000 ensemble energies
             -0.608390823969999E+02
             -0.362526428482110E+01
             -0.158783349851567E+02
              0.430486006454976E+02
             -0.221665067532813E+02
             -0.205827139913154E+02
             -0.353294775742064E+02
             -0.867364412061787E+02
             -0.466340366584255E+02
             -0.473881041410773E+02
             -0.370246706570759E+02
              0.228121344014263E+01
              0.408843626567827E+01
              0.762729209473918E+01
              0.266646393998286E+01
              0.476163162498128E+02
             -0.209382002900104E+02
             -0.230847617280187E+02
              0.193503277013621E+02
             -0.112679115730894E+03
              0.537784183987052E+02
             -0.290424400436412E+02
             -0.335318117467041E+01
             -0.114325570751330E+02
             -0.885775899287228E+01
             -0.466717599413889E+01
              0.885082147863473E+02
             -0.187445204465885E+02
             -0.903896623839330E+01
             -0.519882654619784E+02
              0.817659038510321E+02
             -0.187764065684336E+02
             -0.376019761620802E+02
              0.249958628325291E+02
             -0.284509401720140E+01
              0.164566688528665E+02
             -0.486020962411072E+01
              0.108282614390449E+02
              0.289020623237777E+02
             -0.103551396925532E+03
              0.559763333219732E+02
              0.142745223665071E+02
             -0.172239232779128E+01
             -0.362529600408213E+02
              0.123469258906668E+02
             -0.147029008060071E+02
              0.399546655465076E+02
              0.365794895013669E+02
             -0.308803541261149E+02
             -0.275924564892074E+02
             -0.329179256244212E+02
             -0.353022875425576E+02
              0.136592189796815E+02
             -0.492284407180298E+02
              0.115892996401443E+02
              0.624753498911987E+02
              0.637069173191822E+02
              0.356679240375331E+02
              0.154603655156995E+02
              0.271213351349008E+02
[...]
             -0.707977021621737E+02
             -0.906665012628537E+00
             -0.246761707928251E+01
             -0.885176561461105E+01
             -0.178823367154865E+01
             -0.654507384267554E+02
             -0.211210068359704E+02
              0.540990236981925E+01
              0.900718778235907E+01
              0.470023851805633E+02
             -0.398744144140483E+02
              0.658928162522628E+02
             -0.426274592183446E+02
              0.210898641360204E+02
              0.351284700234396E+02

 BEEF-vdW xc energy contributions
           1 :   -784.797585399970
           2 :    721.037494219984
           3 :   -610.571316847258
           4 :    480.414462349037
           5 :   -358.088689881158
           6 :    263.489486112578
           7 :   -204.356477533823
           8 :    176.219403329427
           9 :   -166.402133116851
          10 :    160.196083111077
          11 :   -146.677465443667
          12 :    121.976044190617
          13 :   -89.1453714570692
          14 :    55.2490515062152
          15 :   -27.3497150116319
          16 :    9.22464918919366
          17 :  -7.675298175456646E-002
          18 :   -4.50617580020787
          19 :    10.0504011391686
          20 :   -20.4731468842514
          21 :    36.3918978440144
          22 :   -55.1323543527300
          23 :    72.2580584165859
          24 :   -83.7875994582929
          25 :    88.0100145564898
          26 :   -86.0988575521935
          27 :    81.3376078134116
          28 :   -77.4270994287027
          29 :    76.7299851067709
          30 :   -79.2815423110706
          31 :   -86.0279067851621
          32 :   -65.9400772237375

     Writing output data file ./pwscf.save/

     General routines

     Parallel routines

   This run was terminated on:  13:46:47   4Jan2023

   JOB DONE.