     Program PWSCF v.6.7MaX starts on 26Sep2022 at 14: 7: 4

     Reading input from chch3-ensemble.in
Warning: card &CELL ignored
Warning: card / ignored

     Current dimensions of program PWSCF are:
     Max number of different atomic species (ntypx) = 10
     Max number of k-points (npk) =  40000
     Max angular momentum in pseudopotentials (lmaxx) =  3
     file Pt.pbe-n-kjpaw_psl.1.0.0.UPF: wavefunction(s)  6S 5D renormalized
     file C.pbe-n-kjpaw_psl.1.0.0.UPF: wavefunction(s)  2S 2P renormalized
     file H.pbe-kjpaw_psl.1.0.0.UPF: wavefunction(s)  1S renormalized

     IMPORTANT: XC functional enforced from input :
     Exchange-correlation= BEEF-VDW
                           (   1   4  43  14   2   0   0)
     Any further DFT definition will be discarded
     Please, verify this is what you really want

     Subspace diagonalization in iterative solution of the eigenvalue problem:
     a serial algorithm will be used

     bravais-lattice index     =            0
     lattice parameter (alat)  =      16.0349  a.u.
     unit-cell volume          =   11527.8325 (a.u.)^3
     number of atoms/cell      =           42
     number of atomic types    =            3
     number of electrons       =       372.00
     number of Kohn-Sham states=          223
     kinetic-energy cutoff     =      60.0000  Ry
     charge density cutoff     =     240.0000  Ry
     scf convergence threshold =      1.0E-06
     mixing beta               =       0.7000
     number of iterations used =            8  local-TF  mixing
     Exchange-correlation= BEEF-VDW
                           (   1   4  43  14   2   0   0)

     celldm(1)=  16.034858  celldm(2)=   0.000000  celldm(3)=   0.000000
     celldm(4)=   0.000000  celldm(5)=   0.000000  celldm(6)=   0.000000

     crystal axes: (cart. coord. in units of alat)
               a(1) = (   1.000000   0.000000   0.000000 )
               a(2) = (   0.500000   0.866025   0.000000 )
               a(3) = (   0.000000   0.000000   3.228655 )

     reciprocal axes: (cart. coord. in units 2 pi/alat)
               b(1) = (  1.000000 -0.577350  0.000000 )
               b(2) = (  0.000000  1.154701  0.000000 )
               b(3) = (  0.000000  0.000000  0.309726 )

     PseudoPot. # 1 for Pt read from file:
     /users/bkreitz1/quantum-espresso/potentials/Pt.pbe-n-kjpaw_psl.1.0.0.UPF
     MD5 check sum: 04dc8a03c51ece93fc7b5889c2958091
     Pseudo is Projector augmented-wave + core cor, Zval = 10.0
     Generated using 'atomic' code by A. Dal Corso  v.6.7MaX
     Shape of augmentation charge: PSQ
     Using radial grid of 1277 points,  6 beta functions with:
                l(1) =   0
                l(2) =   0
                l(3) =   1
                l(4) =   1
                l(5) =   2
                l(6) =   2
     Q(r) pseudized with 0 coefficients

     PseudoPot. # 2 for C  read from file:
     /users/bkreitz1/quantum-espresso/potentials/C.pbe-n-kjpaw_psl.1.0.0.UPF
     MD5 check sum: a169b0ebad56f5ec0d79c4633f80bf22
     Pseudo is Projector augmented-wave + core cor, Zval =  4.0
     Generated using 'atomic' code by A. Dal Corso  v.6.7MaX
     Shape of augmentation charge: PSQ
     Using radial grid of 1073 points,  4 beta functions with:
                l(1) =   0
                l(2) =   0
                l(3) =   1
                l(4) =   1
     Q(r) pseudized with 0 coefficients

     PseudoPot. # 3 for H  read from file:
     /users/bkreitz1/quantum-espresso/potentials/H.pbe-kjpaw_psl.1.0.0.UPF
     MD5 check sum: ae98473e6dc62675f0d0baffdab24f65
     Pseudo is Projector augmented-wave, Zval =  1.0
     Generated using 'atomic' code by A. Dal Corso  v.6.7MaX
     Shape of augmentation charge: PSQ
     Using radial grid of  929 points,  2 beta functions with:
                l(1) =   0
                l(2) =   0
     Q(r) pseudized with 0 coefficients

     atomic species   valence    mass     pseudopotential
        Pt            10.00   195.08400     Pt( 1.00)
        C              4.00    12.01100     C ( 1.00)
        H              1.00     1.00800     H ( 1.00)

     No symmetry found

   Cartesian axes

     site n.     atom                  positions (alat units)
         1           Pt  tau(   1) = (   0.0000000   0.0000000   1.0017346  )
         2           Pt  tau(   2) = (   0.3333333   0.0000000   1.0017346  )
         3           Pt  tau(   3) = (   0.6666667   0.0000000   1.0017346  )
         4           Pt  tau(   4) = (   0.1666667   0.2886751   1.0017346  )
         5           Pt  tau(   5) = (   0.5000000   0.2886751   1.0017346  )
         6           Pt  tau(   6) = (   0.8333333   0.2886751   1.0017346  )
         7           Pt  tau(   7) = (   0.3333333   0.5773503   1.0017346  )
         8           Pt  tau(   8) = (   0.6666667   0.5773503   1.0017346  )
         9           Pt  tau(   9) = (   1.0000000   0.5773503   1.0017346  )
        10           Pt  tau(  10) = (   0.1666667   0.0962250   1.2739001  )
        11           Pt  tau(  11) = (   0.5000000   0.0962250   1.2739001  )
        12           Pt  tau(  12) = (   0.8333333   0.0962250   1.2739001  )
        13           Pt  tau(  13) = (   0.3333333   0.3849002   1.2739001  )
        14           Pt  tau(  14) = (   0.6666667   0.3849002   1.2739001  )
        15           Pt  tau(  15) = (   1.0000000   0.3849002   1.2739001  )
        16           Pt  tau(  16) = (   0.5000000   0.6735753   1.2739001  )
        17           Pt  tau(  17) = (   0.8333333   0.6735753   1.2739001  )
        18           Pt  tau(  18) = (   1.1666667   0.6735753   1.2739001  )
        19           Pt  tau(  19) = (  -0.0011258   0.1917758   1.5410445  )
        20           Pt  tau(  20) = (   0.3339883   0.1920337   1.5459885  )
        21           Pt  tau(  21) = (   0.6652488   0.1932943   1.5440678  )
        22           Pt  tau(  22) = (   0.1666787   0.4824051   1.5410539  )
        23           Pt  tau(  23) = (   0.5012733   0.4777860   1.5486002  )
        24           Pt  tau(  24) = (   0.8329783   0.4813091   1.5436184  )
        25           Pt  tau(  25) = (   0.3360672   0.7681987   1.5391756  )
        26           Pt  tau(  26) = (   0.6701809   0.7703212   1.5486021  )
        27           Pt  tau(  27) = (   0.9985565   0.7705653   1.5440513  )
        28           Pt  tau(  28) = (   0.0006540  -0.0003584   1.8170807  )
        29           Pt  tau(  29) = (   0.3333306   0.0042976   1.8391501  )
        30           Pt  tau(  30) = (   0.6739652  -0.0042634   1.8086578  )
        31           Pt  tau(  31) = (   0.1586690   0.2932295   1.8103388  )
        32           Pt  tau(  32) = (   0.4960731   0.2864614   1.8391856  )
        33           Pt  tau(  33) = (   0.8308203   0.2892863   1.8171813  )
        34           Pt  tau(  34) = (   0.3339112   0.5768909   1.8171361  )
        35           Pt  tau(  35) = (   0.6662393   0.5775169   1.8208529  )
        36           Pt  tau(  36) = (   0.9981795   0.5791168   1.8171965  )
        37           C   tau(  37) = (   0.4271496   0.1381826   2.0200926  )
        38           C   tau(  38) = (   0.3208367   0.1992005   2.1483766  )
        39           H   tau(  39) = (   0.5300202   0.0790205   2.0707357  )
        40           H   tau(  40) = (   0.3868681   0.2826263   2.2218924  )
        41           H   tau(  41) = (   0.2849105   0.1005777   2.2239187  )
        42           H   tau(  42) = (   0.2146469   0.2582669   2.1068103  )

     number of k points=    13  Marzari-Vanderbilt smearing, width (Ry)=  0.0200
                       cart. coord. in units 2pi/alat
        k(    1) = (   0.0000000   0.0000000   0.0000000), wk =   0.0800000
        k(    2) = (   0.0000000   0.2309401   0.0000000), wk =   0.1600000
        k(    3) = (   0.0000000   0.4618802   0.0000000), wk =   0.1600000
        k(    4) = (   0.2000000  -0.1154701   0.0000000), wk =   0.1600000
        k(    5) = (   0.2000000   0.1154701   0.0000000), wk =   0.1600000
        k(    6) = (   0.2000000   0.3464102   0.0000000), wk =   0.1600000
        k(    7) = (   0.2000000  -0.5773503   0.0000000), wk =   0.1600000
        k(    8) = (   0.2000000  -0.3464102   0.0000000), wk =   0.1600000
        k(    9) = (   0.4000000  -0.2309401   0.0000000), wk =   0.1600000
        k(   10) = (   0.4000000  -0.0000000   0.0000000), wk =   0.1600000
        k(   11) = (   0.4000000   0.2309401   0.0000000), wk =   0.1600000
        k(   12) = (   0.4000000  -0.6928203   0.0000000), wk =   0.1600000
        k(   13) = (   0.4000000  -0.4618802   0.0000000), wk =   0.1600000

     Check: negative core charge=   -0.000002

     Initial potential from superposition of free atoms

     starting charge  371.99377, renormalised to  372.00000

     negative rho (up, down):  1.148E-02 0.000E+00

     %%%%%%%%%%%%%%%%%%%%%%%%%%%%%%%%%%%%%%%%%%%%%%%%%%%%%%%%%%%%%%%%%%%%%%%%
     %                                                                      %
     % You are using vdW-DF, which was implemented by the Thonhauser group. %
     % Please cite the following two papers that made this development      %
     % possible and the two reviews that describe the various versions:     %
     %                                                                      %
     %   T. Thonhauser et al., PRL 115, 136402 (2015).                      %
     %   T. Thonhauser et al., PRB 76, 125112 (2007).                       %
     %   K. Berland et al., Rep. Prog. Phys. 78, 066501 (2015).             %
     %   D.C. Langreth et al., J. Phys.: Condens. Matter 21, 084203 (2009). %
     %                                                                      %
     %                                                                      %
     % If you are calculating the stress with vdW-DF, please also cite:     %
     %                                                                      %
     %   R. Sabatini et al., J. Phys.: Condens. Matter 24, 424209 (2012).   %
     %                                                                      %
     %%%%%%%%%%%%%%%%%%%%%%%%%%%%%%%%%%%%%%%%%%%%%%%%%%%%%%%%%%%%%%%%%%%%%%%%

     Starting wfcs are  336 randomized atomic wfcs
     Checking if some PAW data can be deallocated...

     Self-consistent Calculation

     iteration #  1     ecut=    60.00 Ry     beta= 0.70
     Davidson diagonalization with overlap
     ethr =  1.00E-02,  avg # of iterations =  2.0

     Threshold (ethr) on eigenvalues was too large:
     Diagonalizing with lowered threshold

     Davidson diagonalization with overlap
     ethr =  7.29E-04,  avg # of iterations =  2.8

[...]

     total energy              =  -27796.89302798 Ry
     estimated scf accuracy    <       2.97404010 Ry

[...]

     iteration #  4     ecut=    60.00 Ry     beta= 0.70
     Davidson diagonalization with overlap
     c_bands:  2 eigenvalues not converged
     ethr =  1.18E-04,  avg # of iterations = 13.3

[...]

     iteration # 10     ecut=    60.00 Ry     beta= 0.70
     Davidson diagonalization with overlap
     c_bands:  1 eigenvalues not converged
     ethr =  2.66E-07,  avg # of iterations = 10.2

[...]

     total energy              =  -27797.16085575 Ry
     estimated scf accuracy    <       0.00000237 Ry

     iteration # 19     ecut=    60.00 Ry     beta= 0.70
     Davidson diagonalization with overlap
     ethr =  6.38E-10,  avg # of iterations =  3.2

[...]

     End of self-consistent calculation

          k = 0.0000 0.0000 0.0000 ( 90499 PWs)   bands (ev):

   -12.6134  -8.8062  -6.9310  -5.6943  -5.0840  -4.5782  -4.5549  -4.5413
    -4.5344  -4.5236  -4.5127  -4.4808  -4.4636  -4.1472  -4.0265  -3.9796
    -3.9614  -3.9575  -3.9478  -3.8756  -3.8257  -3.5424  -3.5077  -3.5035
    -3.4752  -3.4729  -3.4161  -3.3112  -3.2909  -3.2894  -3.2592  -3.2588
    -3.2041  -3.1032  -3.0731  -3.0711  -3.0684  -3.0652  -3.0392  -3.0207
    -3.0149  -3.0065  -2.9974  -2.9692  -2.9124  -2.4732  -2.4716  -2.4461
    -2.4423  -2.4257  -2.4204  -2.3627  -2.3588  -2.3577  -2.3147  -2.2184
    -2.2025  -2.1580  -2.1371  -2.0615  -1.7326  -1.6946  -1.6341  -1.6300
    -1.5999  -1.5707  -1.5571  -1.5067  -1.4674  -1.4486  -1.4400  -1.4343
    -1.4308  -1.4204  -1.4150  -1.4027  -1.3789  -1.3619  -1.3558  -1.3470
    -1.3389  -1.3061  -1.2918  -1.2465  -1.2256  -1.2090  -1.2062  -1.1712
    -1.0645  -1.0397  -1.0371  -1.0217  -1.0010  -0.9923  -0.9660  -0.9547
    -0.9344  -0.8829  -0.8648  -0.8405  -0.8002  -0.7866  -0.7858  -0.7457
    -0.7445  -0.6683  -0.6527  -0.6259  -0.5814  -0.5786  -0.5749  -0.5549
    -0.4900  -0.3093  -0.1708  -0.1662  -0.1467  -0.1086  -0.0832  -0.0716
    -0.0604  -0.0361  -0.0217   0.0336   0.0712   0.0857   0.0969   0.1281
     0.1752   0.1796   0.1974   0.2616   0.2954   0.3080   0.3831   0.4020
     0.4043   0.4228   0.4251   0.5942   0.6095   0.6418   0.6524   0.6649
     0.6650   0.7130   0.7160   0.7478   0.8897   0.8991   0.8993   0.9186
     0.9398   1.0043   1.0182   1.0371   1.0697   1.0714   1.0879   1.0945
     1.1011   1.1014   1.1284   1.1315   1.1423   1.1454   1.1870   1.1923
     1.2290   1.2410   1.2578   1.2685   1.3166   1.3217   1.3248   1.3342
     1.3514   1.3589   1.3921   1.4054   1.4581   1.4616   1.4638   1.4885
     1.4950   1.5049   1.5349   1.5658   1.5742   1.5880   1.6199   1.6211
     1.6246   1.7580   1.7861   1.8709   1.8792   1.8988   1.9300   1.9306
     1.9334   2.3096   2.4033   2.7337   2.7759   2.8011   2.8177   2.8627
     3.7574   4.4659   5.0594   5.0914   5.1201   5.1264   5.6415   5.8817
     6.1795   6.5819   6.6938   6.6973   6.7348   6.7395   6.7604

[...]

          k = 0.4000-0.4619 0.0000 ( 90514 PWs)   bands (ev):

   -12.6130  -8.8020  -6.0001  -5.9482  -5.3714  -5.1583  -4.7589  -4.6092
    -4.2949  -4.2067  -4.0870  -4.0582  -4.0200  -4.0078  -3.9014  -3.8858
    -3.8158  -3.7936  -3.7328  -3.6997  -3.6695  -3.6509  -3.6387  -3.6113
    -3.5206  -3.4887  -3.4621  -3.4452  -3.4332  -3.4274  -3.3492  -3.3003
    -3.2229  -3.1411  -3.0968  -3.0797  -3.0744  -3.0499  -3.0357  -2.9450
    -2.8863  -2.8606  -2.8164  -2.6536  -2.6344  -2.5901  -2.5741  -2.5281
    -2.4497  -2.4389  -2.3868  -2.3271  -2.2956  -2.2702  -2.2399  -2.2176
    -2.1708  -2.1384  -2.1204  -2.0655  -2.0363  -2.0249  -1.9946  -1.9858
    -1.9727  -1.9682  -1.9253  -1.8521  -1.7974  -1.7871  -1.7557  -1.7125
    -1.6569  -1.6285  -1.5885  -1.5786  -1.5251  -1.5019  -1.4935  -1.4776
    -1.3968  -1.3855  -1.3804  -1.3608  -1.3223  -1.2979  -1.2716  -1.2035
    -1.1749  -1.1595  -1.1508  -1.1249  -1.0575  -1.0304  -0.9793  -0.9614
    -0.9384  -0.9065  -0.8913  -0.8860  -0.8578  -0.8226  -0.8202  -0.8094
    -0.7925  -0.7619  -0.7520  -0.7203  -0.7189  -0.6968  -0.6896  -0.6645
    -0.6342  -0.6242  -0.5264  -0.4246  -0.3753  -0.3226  -0.3161  -0.2488
    -0.2257  -0.1985  -0.1724  -0.1377  -0.1128  -0.1009  -0.0767  -0.0346
    -0.0066   0.0120   0.0188   0.0640   0.1140   0.1592   0.1632   0.1922
     0.2440   0.3125   0.3643   0.3877   0.4361   0.4940   0.5051   0.5195
     0.5376   0.5789   0.6007   0.6014   0.6290   0.6592   0.6875   0.7412
     0.7762   0.8079   0.8211   0.8531   0.8688   0.8818   0.9993   1.0180
     1.0598   1.1067   1.1866   1.2173   1.2966   1.3012   1.3826   1.3977
     1.4203   1.4277   1.5068   1.5424   1.5853   1.6091   1.6188   1.6472
     1.6559   1.7079   1.7168   1.7828   1.7945   1.8168   1.8321   1.8507
     1.8538   1.8587   1.9397   2.0227   2.0519   2.0559   2.0662   2.0807
     2.1351   2.1613   2.2431   2.3324   2.9394   3.1829   3.2368   3.2428
     3.3685   3.4770   3.5919   3.6481   3.6990   4.1064   4.2143   4.3407
     4.3857   4.6945   4.7230   4.7952   4.8424   5.0322   5.0801   5.1445
     5.1855   5.4033   5.6631   5.6799   6.1163   6.2286   6.3316

     the Fermi energy is     1.8522 ev

!    total energy              =  -27797.16085564 Ry

     total all-electron energy =  -1326799.454453 Ry
     estimated scf accuracy    <       0.00000077 Ry
     smearing contrib. (-TS)   =       0.00284773 Ry
     internal energy E=F+TS    =  -27797.16370337 Ry

     The total energy is F=E-TS. E is the sum of the following terms:
     one-electron contribution =  -27849.43344715 Ry
     hartree contribution      =   14226.94766896 Ry
     xc contribution           =    -902.65330717 Ry
     ewald contribution        =   12215.03600714 Ry
     one-center paw contrib.   =  -25487.06062515 Ry

     convergence has been achieved in  19 iterations

[...]

     Forces acting on atoms (cartesian axes, Ry/au):

     atom    1 type  1   force =     0.00061626    0.00177667   -0.00556164
     atom    2 type  1   force =    -0.00055777    0.00001487   -0.00324832
     atom    3 type  1   force =     0.00043187   -0.00026316   -0.00378923
     atom    4 type  1   force =    -0.00034481    0.00018873   -0.00445247
     atom    5 type  1   force =    -0.00028772    0.00045935   -0.00322493
     atom    6 type  1   force =     0.00076565   -0.00036804   -0.00381185
     atom    7 type  1   force =    -0.00123147   -0.00140594   -0.00557790
     atom    8 type  1   force =    -0.00083031    0.00048911   -0.00241134
     atom    9 type  1   force =     0.00071348   -0.00047813   -0.00381737
     atom   10 type  1   force =     0.00076523   -0.00337263    0.00501705
     atom   11 type  1   force =    -0.00047692    0.00029034    0.00796903
     atom   12 type  1   force =     0.00027324   -0.00022382   -0.00235896
     atom   13 type  1   force =     0.00330874    0.00099551    0.00502169
     atom   14 type  1   force =    -0.00196714    0.00155742    0.00904006
     atom   15 type  1   force =    -0.00066734    0.00035766    0.00083505
     atom   16 type  1   force =     0.00223485   -0.00128944   -0.00217380
     atom   17 type  1   force =    -0.00237017    0.00090161    0.00903650
     atom   18 type  1   force =     0.00034244   -0.00013821   -0.00235555
     atom   19 type  1   force =     0.00009089    0.00001326   -0.00006395
     atom   20 type  1   force =     0.00016836   -0.00008634    0.00033108
     atom   21 type  1   force =    -0.00008283    0.00004365    0.00053701
     atom   22 type  1   force =     0.00002509   -0.00008959   -0.00005984
     atom   23 type  1   force =    -0.00041213    0.00007559    0.00007460
     atom   24 type  1   force =     0.00011302   -0.00007143   -0.00037269
     atom   25 type  1   force =    -0.00018500    0.00010332   -0.00047982
     atom   26 type  1   force =    -0.00027574    0.00031889    0.00006680
     atom   27 type  1   force =    -0.00007383    0.00002982    0.00054171
     atom   28 type  1   force =    -0.00000248    0.00023801    0.00032352
     atom   29 type  1   force =     0.00005598    0.00008346    0.00031294
     atom   30 type  1   force =    -0.00023836    0.00012464    0.00008540
     atom   31 type  1   force =     0.00075554   -0.00043320    0.00030980
     atom   32 type  1   force =    -0.00005148   -0.00006651    0.00028424
     atom   33 type  1   force =     0.00008261   -0.00002617    0.00009778
     atom   34 type  1   force =    -0.00021402   -0.00014584    0.00030210
     atom   35 type  1   force =    -0.00025274    0.00014316   -0.00064508
     atom   36 type  1   force =     0.00006589   -0.00008313    0.00009439
     atom   37 type  2   force =     0.00004534    0.00004553    0.00026267
     atom   38 type  2   force =     0.00195906   -0.00103351    0.00601974
     atom   39 type  3   force =    -0.00050478    0.00038556    0.00019554
     atom   40 type  3   force =     0.00003262   -0.00062662    0.00017845
     atom   41 type  3   force =     0.00038907    0.00025977    0.00009385
     atom   42 type  3   force =    -0.00220818    0.00130577   -0.00262628

     Total force =     0.007703     Total SCF correction =     0.002363
     SCF correction compared to forces is large: reduce conv_thr to get better values

[...]

     negative rho (up, down):  1.264E-02 0.000E+00

     negative rho (up, down):  1.264E-02 0.000E+00
 BEEFens 2000 ensemble energies
             -0.603945282059337E+02
             -0.359815087085849E+01
             -0.157672727931819E+02
              0.427525492785594E+02
             -0.220294096036857E+02
             -0.204519124932608E+02
             -0.350240093589409E+02
             -0.860701144894281E+02
             -0.463300667271274E+02
             -0.471004100184307E+02
             -0.367714141986530E+02
              0.224995327172526E+01
              0.404869673389973E+01
              0.763616798903647E+01
              0.263637351775199E+01
              0.472902808393212E+02
             -0.207867027536664E+02
             -0.229560622230473E+02
              0.192103571851379E+02
             -0.111893026003540E+03
              0.533796911775824E+02
             -0.289027335729407E+02
             -0.332147764933219E+01
             -0.113711509307107E+02
             -0.883412923514084E+01
             -0.459764558332409E+01
              0.878876819891145E+02
             -0.186346007390902E+02
             -0.895092784444569E+01
             -0.515944457993425E+02
              0.812329600004202E+02
             -0.186860118605229E+02
             -0.373150301873605E+02
              0.248242245581473E+02
             -0.283554962842993E+01
              0.162981659107718E+02
             -0.486266345002093E+01
              0.107991877207251E+02
              0.286950984156069E+02
             -0.102814505727404E+03
              0.556075664295692E+02
              0.141842755170044E+02
             -0.168405123053896E+01
             -0.359965884412955E+02
              0.122751387107853E+02
             -0.146113394567982E+02
              0.396284117974083E+02
              0.363220601446909E+02
             -0.307180274590436E+02
             -0.273680249579010E+02
             -0.327207355592614E+02
             -0.350587743893342E+02
              0.135615770018069E+02
             -0.488457564954463E+02
              0.114901061190292E+02
              0.620308468687015E+02
              0.632132140617590E+02
              0.354464184026798E+02
              0.153224437832917E+02
              0.269194263187968E+02
[...]
             -0.702882196916980E+02
             -0.888778632253889E+00
             -0.248257763196915E+01
             -0.877556414924811E+01
             -0.182921768738106E+01
             -0.649932828122281E+02
             -0.210076293639037E+02
              0.534116662056068E+01
              0.894607780309622E+01
              0.466696922580738E+02
             -0.395901583977295E+02
              0.654661993454507E+02
             -0.423544427483008E+02
              0.209301372860040E+02
              0.348373053045487E+02

 BEEF-vdW xc energy contributions
           1 :   -779.482930804800
           2 :    716.257571083116
           3 :   -606.705469893563
           4 :    477.619091459718
           5 :   -356.326975037035
           6 :    262.597043448547
           7 :   -204.094964042615
           8 :    176.326139975339
           9 :   -166.645298480074
          10 :    160.419435704326
          11 :   -146.818104353436
          12 :    122.051197789510
          13 :   -89.2147459368341
          14 :    55.3714863780717
          15 :   -27.5514904989072
          16 :    9.48478006767664
          17 :  -0.336059963800949
          18 :   -4.31405120801116
          19 :    9.96577392036454
          20 :   -20.4909547767786
          21 :    36.4650231022489
          22 :   -55.1960120701375
          23 :    72.2622361293157
          24 :   -83.7202937680347
          25 :    87.8997862186401
          26 :   -85.9970364268447
          27 :    81.2932405521577
          28 :   -77.4682456750611
          29 :    76.8572029792194
          30 :   -79.4726046812575
          31 :   -85.4613138266603
          32 :   -65.5343535684018

     Writing output data file ./pwscf.save/

     General routines

     Parallel routines

   This run was terminated on:  17:59:30  26Sep2022

   JOB DONE.