     Program PWSCF v.6.7MaX starts on  4Jan2023 at 10:19: 7

     Reading input from chch2ch2-bi-ensemble.in
Warning: card &CELL ignored
Warning: card / ignored

     Current dimensions of program PWSCF are:
     Max number of different atomic species (ntypx) = 10
     Max number of k-points (npk) =  40000
     Max angular momentum in pseudopotentials (lmaxx) =  3
     file Pt.pbe-n-kjpaw_psl.1.0.0.UPF: wavefunction(s)  6S 5D renormalized
     file C.pbe-n-kjpaw_psl.1.0.0.UPF: wavefunction(s)  2S 2P renormalized
     file H.pbe-kjpaw_psl.1.0.0.UPF: wavefunction(s)  1S renormalized

     IMPORTANT: XC functional enforced from input :
     Exchange-correlation= BEEF-VDW
                           (   1   4  43  14   2   0   0)
     Any further DFT definition will be discarded
     Please, verify this is what you really want

     Subspace diagonalization in iterative solution of the eigenvalue problem:
     a serial algorithm will be used

     bravais-lattice index     =            0
     lattice parameter (alat)  =      16.0349  a.u.
     unit-cell volume          =   11699.3068 (a.u.)^3
     number of atoms/cell      =           44
     number of atomic types    =            3
     number of electrons       =       377.00
     number of Kohn-Sham states=          227
     kinetic-energy cutoff     =      60.0000  Ry
     charge density cutoff     =     240.0000  Ry
     scf convergence threshold =      1.0E-06
     mixing beta               =       0.7000
     number of iterations used =            8  local-TF  mixing
     Exchange-correlation= BEEF-VDW
                           (   1   4  43  14   2   0   0)

     celldm(1)=  16.034858  celldm(2)=   0.000000  celldm(3)=   0.000000
     celldm(4)=   0.000000  celldm(5)=   0.000000  celldm(6)=   0.000000

     crystal axes: (cart. coord. in units of alat)
               a(1) = (   1.000000   0.000000   0.000000 )
               a(2) = (   0.500000   0.866025   0.000000 )
               a(3) = (   0.000000   0.000000   3.276681 )

     reciprocal axes: (cart. coord. in units 2 pi/alat)
               b(1) = (  1.000000 -0.577350  0.000000 )
               b(2) = (  0.000000  1.154701  0.000000 )
               b(3) = (  0.000000  0.000000  0.305187 )

     PseudoPot. # 1 for Pt read from file:
     /users/bkreitz1/quantum-espresso/potentials/Pt.pbe-n-kjpaw_psl.1.0.0.UPF
     MD5 check sum: 04dc8a03c51ece93fc7b5889c2958091
     Pseudo is Projector augmented-wave + core cor, Zval = 10.0
     Generated using 'atomic' code by A. Dal Corso  v.6.7MaX
     Shape of augmentation charge: PSQ
     Using radial grid of 1277 points,  6 beta functions with:
                l(1) =   0
                l(2) =   0
                l(3) =   1
                l(4) =   1
                l(5) =   2
                l(6) =   2
     Q(r) pseudized with 0 coefficients

     PseudoPot. # 2 for C  read from file:
     /users/bkreitz1/quantum-espresso/potentials/C.pbe-n-kjpaw_psl.1.0.0.UPF
     MD5 check sum: a169b0ebad56f5ec0d79c4633f80bf22
     Pseudo is Projector augmented-wave + core cor, Zval =  4.0
     Generated using 'atomic' code by A. Dal Corso  v.6.7MaX
     Shape of augmentation charge: PSQ
     Using radial grid of 1073 points,  4 beta functions with:
                l(1) =   0
                l(2) =   0
                l(3) =   1
                l(4) =   1
     Q(r) pseudized with 0 coefficients

     PseudoPot. # 3 for H  read from file:
     /users/bkreitz1/quantum-espresso/potentials/H.pbe-kjpaw_psl.1.0.0.UPF
     MD5 check sum: ae98473e6dc62675f0d0baffdab24f65
     Pseudo is Projector augmented-wave, Zval =  1.0
     Generated using 'atomic' code by A. Dal Corso  v.6.7MaX
     Shape of augmentation charge: PSQ
     Using radial grid of  929 points,  2 beta functions with:
                l(1) =   0
                l(2) =   0
     Q(r) pseudized with 0 coefficients

     atomic species   valence    mass     pseudopotential
        Pt            10.00   195.08400     Pt( 1.00)
        C              4.00    12.01100     C ( 1.00)
        H              1.00     1.00800     H ( 1.00)

     No symmetry found

   Cartesian axes

     site n.     atom                  positions (alat units)
         1           Pt  tau(   1) = (   0.0000000   0.0000000   1.0017346  )
         2           Pt  tau(   2) = (   0.3333333   0.0000000   1.0017346  )
         3           Pt  tau(   3) = (   0.6666667   0.0000000   1.0017346  )
         4           Pt  tau(   4) = (   0.1666667   0.2886751   1.0017346  )
         5           Pt  tau(   5) = (   0.5000000   0.2886751   1.0017346  )
         6           Pt  tau(   6) = (   0.8333333   0.2886751   1.0017346  )
         7           Pt  tau(   7) = (   0.3333333   0.5773503   1.0017346  )
         8           Pt  tau(   8) = (   0.6666667   0.5773503   1.0017346  )
         9           Pt  tau(   9) = (   1.0000000   0.5773503   1.0017346  )
        10           Pt  tau(  10) = (   0.1666667   0.0962250   1.2739001  )
        11           Pt  tau(  11) = (   0.5000000   0.0962250   1.2739001  )
        12           Pt  tau(  12) = (   0.8333333   0.0962250   1.2739001  )
        13           Pt  tau(  13) = (   0.3333333   0.3849002   1.2739001  )
        14           Pt  tau(  14) = (   0.6666667   0.3849002   1.2739001  )
        15           Pt  tau(  15) = (   1.0000000   0.3849002   1.2739001  )
        16           Pt  tau(  16) = (   0.5000000   0.6735753   1.2739001  )
        17           Pt  tau(  17) = (   0.8333333   0.6735753   1.2739001  )
        18           Pt  tau(  18) = (   1.1666667   0.6735753   1.2739001  )
        19           Pt  tau(  19) = (   0.0021879   0.1908248   1.5395423  )
        20           Pt  tau(  20) = (   0.3376208   0.1925166   1.5469104  )
        21           Pt  tau(  21) = (   0.6652331   0.1930712   1.5484973  )
        22           Pt  tau(  22) = (   0.1684393   0.4796615   1.5413399  )
        23           Pt  tau(  23) = (   0.5029294   0.4790212   1.5486792  )
        24           Pt  tau(  24) = (   0.8332936   0.4805620   1.5464947  )
        25           Pt  tau(  25) = (   0.3351829   0.7685242   1.5407865  )
        26           Pt  tau(  26) = (   0.6686484   0.7656920   1.5443669  )
        27           Pt  tau(  27) = (   1.0020269   0.7681940   1.5423926  )
        28           Pt  tau(  28) = (   0.0054371  -0.0032908   1.8150839  )
        29           Pt  tau(  29) = (   0.3368890  -0.0061194   1.8147348  )
        30           Pt  tau(  30) = (   0.6735699  -0.0071153   1.8163354  )
        31           Pt  tau(  31) = (   0.1709100   0.2843030   1.8162338  )
        32           Pt  tau(  32) = (   0.5065282   0.2831112   1.8403033  )
        33           Pt  tau(  33) = (   0.8446660   0.2838675   1.8138745  )
        34           Pt  tau(  34) = (   0.3372207   0.5748487   1.8145226  )
        35           Pt  tau(  35) = (   0.6731675   0.5742823   1.8381614  )
        36           Pt  tau(  36) = (   1.0062321   0.5734144   1.8166685  )
        37           C   tau(  37) = (   0.5454176   0.2795126   2.0594153  )
        38           C   tau(  38) = (   0.6362361   0.3974131   2.1505906  )
        39           C   tau(  39) = (   0.6554646   0.5633951   2.0829477  )
        40           H   tau(  40) = (   0.5058631   0.1764898   2.1257637  )
        41           H   tau(  41) = (   0.5875373   0.4032397   2.2710492  )
        42           H   tau(  42) = (   0.7530538   0.3415969   2.1654649  )
        43           H   tau(  43) = (   0.7608945   0.6197462   2.1301920  )
        44           H   tau(  44) = (   0.5527465   0.6351951   2.1131284  )

     number of k points=    13  Marzari-Vanderbilt smearing, width (Ry)=  0.0200
                       cart. coord. in units 2pi/alat
        k(    1) = (   0.0000000   0.0000000   0.0000000), wk =   0.0800000
        k(    2) = (   0.0000000   0.2309401   0.0000000), wk =   0.1600000
        k(    3) = (   0.0000000   0.4618802   0.0000000), wk =   0.1600000
        k(    4) = (   0.2000000  -0.1154701   0.0000000), wk =   0.1600000
        k(    5) = (   0.2000000   0.1154701   0.0000000), wk =   0.1600000
        k(    6) = (   0.2000000   0.3464102   0.0000000), wk =   0.1600000
        k(    7) = (   0.2000000  -0.5773503   0.0000000), wk =   0.1600000
        k(    8) = (   0.2000000  -0.3464102   0.0000000), wk =   0.1600000
        k(    9) = (   0.4000000  -0.2309401   0.0000000), wk =   0.1600000
        k(   10) = (   0.4000000  -0.0000000   0.0000000), wk =   0.1600000
        k(   11) = (   0.4000000   0.2309401   0.0000000), wk =   0.1600000
        k(   12) = (   0.4000000  -0.6928203   0.0000000), wk =   0.1600000
        k(   13) = (   0.4000000  -0.4618802   0.0000000), wk =   0.1600000

     Check: negative core charge=   -0.000002

     Initial potential from superposition of free atoms

     starting charge  376.99372, renormalised to  377.00000

     negative rho (up, down):  1.119E-02 0.000E+00

     %%%%%%%%%%%%%%%%%%%%%%%%%%%%%%%%%%%%%%%%%%%%%%%%%%%%%%%%%%%%%%%%%%%%%%%%
     %                                                                      %
     % You are using vdW-DF, which was implemented by the Thonhauser group. %
     % Please cite the following two papers that made this development      %
     % possible and the two reviews that describe the various versions:     %
     %                                                                      %
     %   T. Thonhauser et al., PRL 115, 136402 (2015).                      %
     %   T. Thonhauser et al., PRB 76, 125112 (2007).                       %
     %   K. Berland et al., Rep. Prog. Phys. 78, 066501 (2015).             %
     %   D.C. Langreth et al., J. Phys.: Condens. Matter 21, 084203 (2009). %
     %                                                                      %
     %                                                                      %
     % If you are calculating the stress with vdW-DF, please also cite:     %
     %                                                                      %
     %   R. Sabatini et al., J. Phys.: Condens. Matter 24, 424209 (2012).   %
     %                                                                      %
     %%%%%%%%%%%%%%%%%%%%%%%%%%%%%%%%%%%%%%%%%%%%%%%%%%%%%%%%%%%%%%%%%%%%%%%%

     Starting wfcs are  341 randomized atomic wfcs
     Checking if some PAW data can be deallocated...

     Self-consistent Calculation

     iteration #  1     ecut=    60.00 Ry     beta= 0.70
     Davidson diagonalization with overlap
     ethr =  1.00E-02,  avg # of iterations =  2.9

[...]

     total energy              =  -27816.55758383 Ry
     estimated scf accuracy    <       4.36999195 Ry

[...]

     iteration #  5     ecut=    60.00 Ry     beta= 0.70
     Davidson diagonalization with overlap
     c_bands:  1 eigenvalues not converged
     ethr =  5.52E-05,  avg # of iterations =  9.5

[...]

     iteration # 13     ecut=    60.00 Ry     beta= 0.70
     Davidson diagonalization with overlap
     c_bands:  1 eigenvalues not converged
     c_bands:  1 eigenvalues not converged
     c_bands:  1 eigenvalues not converged
     ethr =  2.50E-07,  avg # of iterations =  9.8

[...]

     total energy              =  -27817.32811505 Ry
     estimated scf accuracy    <       0.00000388 Ry

     iteration # 20     ecut=    60.00 Ry     beta= 0.70
     Davidson diagonalization with overlap
     ethr =  1.03E-09,  avg # of iterations =  1.0

[...]

     End of self-consistent calculation

          k = 0.0000 0.0000 0.0000 ( 91893 PWs)   bands (ev):

   -13.7474 -10.6471  -8.1614  -6.7651  -5.6280  -5.4113  -5.1180  -4.4980
    -4.4176  -4.3785  -4.3706  -4.3662  -4.3474  -4.3283  -4.3080  -4.0772
    -3.8236  -3.8185  -3.8121  -3.8002  -3.7910  -3.7127  -3.3962  -3.3660
    -3.3536  -3.3466  -3.3397  -3.3278  -3.2096  -3.1522  -3.1325  -3.1266
    -3.1096  -3.0912  -3.0743  -3.0041  -2.9384  -2.9285  -2.9111  -2.9100
    -2.9009  -2.8844  -2.8709  -2.8394  -2.8286  -2.8059  -2.7913  -2.7292
    -2.4279  -2.3283  -2.2859  -2.2683  -2.2566  -2.2261  -2.2184  -2.2064
    -2.1750  -2.1415  -2.0891  -2.0148  -2.0066  -1.8848  -1.7741  -1.6536
    -1.5097  -1.4927  -1.4688  -1.4521  -1.4326  -1.3702  -1.3417  -1.3323
    -1.2882  -1.2763  -1.2747  -1.2572  -1.2527  -1.2393  -1.2183  -1.2054
    -1.1968  -1.1843  -1.1705  -1.1543  -1.1299  -1.0802  -1.0764  -1.0634
    -1.0469  -0.9846  -0.9150  -0.9026  -0.8714  -0.8616  -0.8460  -0.8280
    -0.8245  -0.8074  -0.7977  -0.7630  -0.7386  -0.7213  -0.7161  -0.6883
    -0.6220  -0.6156  -0.6101  -0.5747  -0.5737  -0.4891  -0.4629  -0.4473
    -0.4200  -0.4025  -0.2867  -0.0997  -0.0791  -0.0256   0.0101   0.0358
     0.0562   0.0580   0.0740   0.0897   0.1385   0.1436   0.1755   0.2118
     0.2311   0.2519   0.3183   0.3326   0.3603   0.3798   0.4244   0.4356
     0.4562   0.5135   0.5379   0.5675   0.5702   0.5975   0.7239   0.7287
     0.7983   0.8019   0.8166   0.8305   0.8625   0.8938   1.0319   1.0461
     1.0634   1.0983   1.1185   1.1286   1.1431   1.1632   1.2220   1.2324
     1.2364   1.2498   1.2604   1.2754   1.2813   1.2859   1.2960   1.3038
     1.3264   1.3571   1.3650   1.3871   1.3993   1.4224   1.4713   1.4857
     1.4899   1.4951   1.4965   1.5218   1.5285   1.5639   1.5678   1.6227
     1.6293   1.6409   1.6478   1.6606   1.6686   1.6764   1.7174   1.7475
     1.7536   1.7855   1.7915   1.9241   1.9547   2.0292   2.0450   2.0764
     2.0802   2.0880   2.1052   2.2913   2.3806   2.6317   2.8421   2.9268
     2.9506   2.9715   3.3464   3.9090   4.4048   5.1703   5.2175   5.2671
     5.2757   5.4950   5.9257   6.4013   6.5375   6.8452   6.8546   6.8717
     6.8884   6.9097   6.9320

[...]

          k = 0.4000-0.4619 0.0000 ( 91792 PWs)   bands (ev):

   -13.7472 -10.6482  -8.1540  -5.8267  -5.8103  -5.5267  -5.2013  -5.1325
    -4.5901  -4.5572  -4.2470  -4.0360  -3.9749  -3.8995  -3.8546  -3.7543
    -3.7198  -3.6601  -3.6301  -3.5678  -3.5554  -3.5263  -3.5026  -3.4928
    -3.4776  -3.4586  -3.3425  -3.3296  -3.3084  -3.2885  -3.2762  -3.2319
    -3.1399  -3.1096  -3.0482  -3.0328  -2.9868  -2.9425  -2.9312  -2.9036
    -2.8875  -2.8357  -2.8083  -2.7800  -2.6895  -2.6415  -2.5483  -2.4806
    -2.4684  -2.3686  -2.3420  -2.3037  -2.2797  -2.1782  -2.1523  -2.1166
    -2.0992  -2.0762  -2.0403  -2.0153  -1.9752  -1.9653  -1.9136  -1.8846
    -1.8596  -1.8485  -1.8362  -1.8042  -1.7938  -1.7432  -1.7214  -1.6511
    -1.6054  -1.5709  -1.5407  -1.4858  -1.4763  -1.4135  -1.3878  -1.3739
    -1.3526  -1.3229  -1.2981  -1.2417  -1.2278  -1.2044  -1.1898  -1.1643
    -1.1394  -1.0818  -1.0518  -1.0111  -0.9973  -0.9888  -0.9300  -0.8695
    -0.8378  -0.8297  -0.7876  -0.7774  -0.7588  -0.7302  -0.7164  -0.6871
    -0.6796  -0.6621  -0.6426  -0.6168  -0.5940  -0.5731  -0.5680  -0.5465
    -0.5260  -0.5235  -0.4900  -0.4666  -0.4530  -0.3521  -0.2786  -0.2184
    -0.1849  -0.1659  -0.1319  -0.0618  -0.0449  -0.0102   0.0240   0.0315
     0.0748   0.0794   0.1325   0.1572   0.1647   0.1998   0.2210   0.2637
     0.3265   0.3435   0.4211   0.4837   0.5070   0.5318   0.5608   0.5911
     0.6187   0.6576   0.6935   0.7310   0.7547   0.7665   0.7993   0.8180
     0.8310   0.8982   0.9224   0.9483   0.9752   0.9887   1.0154   1.0467
     1.1116   1.1288   1.1547   1.2474   1.3104   1.3483   1.4393   1.4490
     1.4743   1.5164   1.5746   1.5769   1.6535   1.6728   1.7409   1.7699
     1.7969   1.8071   1.8180   1.8408   1.8702   1.9386   1.9488   1.9577
     1.9869   1.9995   2.0090   2.0253   2.0981   2.1736   2.1832   2.2086
     2.2329   2.2439   2.2820   2.3035   2.4194   2.5310   2.6829   2.9828
     3.1750   3.3891   3.3994   3.5056   3.6728   3.7555   3.8245   3.9189
     4.2902   4.3879   4.4596   4.5834   4.8548   4.9188   4.9813   5.0380
     5.1226   5.2084   5.2612   5.3454   5.6810   5.7777   5.8704   5.8980
     6.1948   6.3437   6.4493

     the Fermi energy is     2.0225 ev

!    total energy              =  -27817.32811436 Ry

     total all-electron energy =  -1326877.385805 Ry
     estimated scf accuracy    <       0.00000090 Ry
     smearing contrib. (-TS)   =       0.00077835 Ry
     internal energy E=F+TS    =  -27817.32889272 Ry

     The total energy is F=E-TS. E is the sum of the following terms:
     one-electron contribution =  -28851.61848178 Ry
     hartree contribution      =   14731.72864166 Ry
     xc contribution           =    -908.18572221 Ry
     ewald contribution        =   12704.36937076 Ry
     one-center paw contrib.   =  -25493.62270115 Ry

     convergence has been achieved in  20 iterations

[...]

     Forces acting on atoms (cartesian axes, Ry/au):

     atom    1 type  1   force =     0.00027500   -0.00009357   -0.00895697
     atom    2 type  1   force =    -0.00133164    0.00103927   -0.00344496
     atom    3 type  1   force =     0.00041877    0.00032029   -0.00307639
     atom    4 type  1   force =     0.00003179   -0.00020597   -0.00667472
     atom    5 type  1   force =    -0.00104631    0.00000265   -0.00383417
     atom    6 type  1   force =     0.00044809   -0.00008984   -0.00304569
     atom    7 type  1   force =     0.00000944    0.00040506   -0.00367044
     atom    8 type  1   force =    -0.00075106    0.00111821   -0.00385829
     atom    9 type  1   force =    -0.00006431   -0.00041064   -0.00336447
     atom   10 type  1   force =     0.00116325   -0.00034002   -0.00417124
     atom   11 type  1   force =     0.00037086    0.00206644    0.00945588
     atom   12 type  1   force =    -0.00010286    0.00009344    0.00003160
     atom   13 type  1   force =     0.00198629   -0.00263237    0.00462933
     atom   14 type  1   force =    -0.00053823   -0.00047071    0.01432753
     atom   15 type  1   force =     0.00064312   -0.00025325   -0.00216580
     atom   16 type  1   force =     0.00226618   -0.00001810    0.00184806
     atom   17 type  1   force =    -0.00031954   -0.00170833    0.00774435
     atom   18 type  1   force =     0.00013398   -0.00038667    0.00027617
     atom   19 type  1   force =     0.00030968   -0.00001430    0.00068723
     atom   20 type  1   force =    -0.00013736    0.00015248   -0.00035201
     atom   21 type  1   force =     0.00004503   -0.00019687    0.00029948
     atom   22 type  1   force =    -0.00009197   -0.00017445    0.00074041
     atom   23 type  1   force =    -0.00007210   -0.00049521    0.00012455
     atom   24 type  1   force =    -0.00014932    0.00005333   -0.00007365
     atom   25 type  1   force =     0.00009872   -0.00023157    0.00068995
     atom   26 type  1   force =    -0.00012424    0.00038438    0.00014611
     atom   27 type  1   force =    -0.00013597    0.00019487    0.00021596
     atom   28 type  1   force =    -0.00029209   -0.00005478    0.00017279
     atom   29 type  1   force =    -0.00010837    0.00002524    0.00010582
     atom   30 type  1   force =    -0.00004213   -0.00026417    0.00050248
     atom   31 type  1   force =    -0.00048156    0.00003183    0.00029859
     atom   32 type  1   force =    -0.00010056   -0.00043718    0.00007684
     atom   33 type  1   force =     0.00013840   -0.00012213    0.00050034
     atom   34 type  1   force =    -0.00024450    0.00015210    0.00009450
     atom   35 type  1   force =    -0.00018535    0.00027940    0.00020869
     atom   36 type  1   force =     0.00009001   -0.00025178    0.00051762
     atom   37 type  2   force =    -0.00158342    0.00257594   -0.00072286
     atom   38 type  2   force =    -0.00002304   -0.00017484   -0.00050176
     atom   39 type  2   force =    -0.00205381    0.00124915    0.00465531
     atom   40 type  3   force =     0.00026405   -0.00012660    0.00019907
     atom   41 type  3   force =    -0.00025965    0.00000940   -0.00003214
     atom   42 type  3   force =    -0.00025569    0.00025475    0.00053970
     atom   43 type  3   force =     0.00007916    0.00027975    0.00043224
     atom   44 type  3   force =     0.00172328   -0.00153465   -0.00157506

     Total force =     0.007109     Total SCF correction =     0.001780
     SCF correction compared to forces is large: reduce conv_thr to get better values

[...]

     negative rho (up, down):  1.232E-02 0.000E+00

     negative rho (up, down):  1.232E-02 0.000E+00
 BEEFens 2000 ensemble energies
             -0.608253343626521E+02
             -0.361718322463375E+01
             -0.158579113610373E+02
              0.430221219001007E+02
             -0.221532750828827E+02
             -0.205523683109008E+02
             -0.353357878127147E+02
             -0.867040321714563E+02
             -0.465490377903470E+02
             -0.472999777340997E+02
             -0.370030147631729E+02
              0.230158542599360E+01
              0.409472496093878E+01
              0.758446826702084E+01
              0.266495225138863E+01
              0.475882099061317E+02
             -0.209020230433686E+02
             -0.230087578325305E+02
              0.193653508659816E+02
             -0.112600758795014E+03
              0.537414698071952E+02
             -0.289994166370074E+02
             -0.335341470645291E+01
             -0.114120448780375E+02
             -0.880714408183178E+01
             -0.463042874229293E+01
              0.884435847230919E+02
             -0.187833392832509E+02
             -0.901273705206643E+01
             -0.519693203346276E+02
              0.816442952819236E+02
             -0.187038497331844E+02
             -0.375760611726146E+02
              0.249381827833504E+02
             -0.284147463801179E+01
              0.164986202005015E+02
             -0.483236386257738E+01
              0.107812871057466E+02
              0.289548384993448E+02
             -0.103442219991380E+03
              0.559500488120026E+02
              0.142706054806690E+02
             -0.176698258076948E+01
             -0.361986164872581E+02
              0.123462234939793E+02
             -0.147203816671729E+02
              0.399533544036980E+02
              0.365378125724579E+02
             -0.308147912046196E+02
             -0.275795451579997E+02
             -0.329122992335313E+02
             -0.353005140623354E+02
              0.137183662120674E+02
             -0.491876157821973E+02
              0.115982491978671E+02
              0.624397150069424E+02
              0.637082304930378E+02
              0.356363285294066E+02
              0.154310448821601E+02
              0.271413088145486E+02
[...]
             -0.707726280062835E+02
             -0.864676495125877E+00
             -0.247261944623508E+01
             -0.884860466997588E+01
             -0.179409608572229E+01
             -0.653962924346093E+02
             -0.210472570989408E+02
              0.543890989829027E+01
              0.904425613519268E+01
              0.469904037177963E+02
             -0.398683859546976E+02
              0.657861715273843E+02
             -0.425954303670360E+02
              0.211119642404858E+02
              0.351226385636787E+02

 BEEF-vdW xc energy contributions
           1 :   -784.080840773012
           2 :    720.183540710824
           3 :   -609.543028262737
           4 :    479.283240585426
           5 :   -356.983535699339
           6 :    262.542863317123
           7 :   -203.660636107955
           8 :    175.799771931958
           9 :   -166.215553297629
          10 :    160.151455513225
          11 :   -146.671940190874
          12 :    121.933270730056
          13 :   -89.0364037239744
          14 :    55.0924278026217
          15 :   -27.1938338359250
          16 :    9.11633024495654
          17 :  -3.142711834698275E-002
          18 :   -4.51345483189777
          19 :    10.0679687583785
          20 :   -20.5427795611437
          21 :    36.5239056877098
          22 :   -55.2992440664847
          23 :    72.4096670783875
          24 :   -83.8779986591454
          25 :    88.0213392815729
          26 :   -86.0486651155763
          27 :    81.2681635738260
          28 :   -77.3858209518463
          29 :    76.7489690841378
          30 :   -79.3631415005825
          31 :   -86.0879368938234
          32 :   -65.9577262905793

     Writing output data file ./pwscf.save/

     General routines

     Parallel routines

   This run was terminated on:  14: 2:23   4Jan2023

   JOB DONE.