     Program PWSCF v.6.7MaX starts on 26Sep2022 at 14:14: 7

     Reading input from chch2-ensemble.in
Warning: card &CELL ignored
Warning: card / ignored

     Current dimensions of program PWSCF are:
     Max number of different atomic species (ntypx) = 10
     Max number of k-points (npk) =  40000
     Max angular momentum in pseudopotentials (lmaxx) =  3
     file Pt.pbe-n-kjpaw_psl.1.0.0.UPF: wavefunction(s)  6S 5D renormalized
     file C.pbe-n-kjpaw_psl.1.0.0.UPF: wavefunction(s)  2S 2P renormalized
     file H.pbe-kjpaw_psl.1.0.0.UPF: wavefunction(s)  1S renormalized

     IMPORTANT: XC functional enforced from input :
     Exchange-correlation= BEEF-VDW
                           (   1   4  43  14   2   0   0)
     Any further DFT definition will be discarded
     Please, verify this is what you really want

     Subspace diagonalization in iterative solution of the eigenvalue problem:
     a serial algorithm will be used

     bravais-lattice index     =            0
     lattice parameter (alat)  =      16.0349  a.u.
     unit-cell volume          =   11707.4595 (a.u.)^3
     number of atoms/cell      =           41
     number of atomic types    =            3
     number of electrons       =       371.00
     number of Kohn-Sham states=          223
     kinetic-energy cutoff     =      60.0000  Ry
     charge density cutoff     =     240.0000  Ry
     scf convergence threshold =      1.0E-06
     mixing beta               =       0.7000
     number of iterations used =            8  local-TF  mixing
     Exchange-correlation= BEEF-VDW
                           (   1   4  43  14   2   0   0)

     celldm(1)=  16.034858  celldm(2)=   0.000000  celldm(3)=   0.000000
     celldm(4)=   0.000000  celldm(5)=   0.000000  celldm(6)=   0.000000

     crystal axes: (cart. coord. in units of alat)
               a(1) = (   1.000000   0.000000   0.000000 )
               a(2) = (   0.500000   0.866025   0.000000 )
               a(3) = (   0.000000   0.000000   3.278964 )

     reciprocal axes: (cart. coord. in units 2 pi/alat)
               b(1) = (  1.000000 -0.577350  0.000000 )
               b(2) = (  0.000000  1.154701  0.000000 )
               b(3) = (  0.000000  0.000000  0.304974 )

     PseudoPot. # 1 for Pt read from file:
     /users/bkreitz1/quantum-espresso/potentials/Pt.pbe-n-kjpaw_psl.1.0.0.UPF
     MD5 check sum: 04dc8a03c51ece93fc7b5889c2958091
     Pseudo is Projector augmented-wave + core cor, Zval = 10.0
     Generated using 'atomic' code by A. Dal Corso  v.6.7MaX
     Shape of augmentation charge: PSQ
     Using radial grid of 1277 points,  6 beta functions with:
                l(1) =   0
                l(2) =   0
                l(3) =   1
                l(4) =   1
                l(5) =   2
                l(6) =   2
     Q(r) pseudized with 0 coefficients

     PseudoPot. # 2 for C  read from file:
     /users/bkreitz1/quantum-espresso/potentials/C.pbe-n-kjpaw_psl.1.0.0.UPF
     MD5 check sum: a169b0ebad56f5ec0d79c4633f80bf22
     Pseudo is Projector augmented-wave + core cor, Zval =  4.0
     Generated using 'atomic' code by A. Dal Corso  v.6.7MaX
     Shape of augmentation charge: PSQ
     Using radial grid of 1073 points,  4 beta functions with:
                l(1) =   0
                l(2) =   0
                l(3) =   1
                l(4) =   1
     Q(r) pseudized with 0 coefficients

     PseudoPot. # 3 for H  read from file:
     /users/bkreitz1/quantum-espresso/potentials/H.pbe-kjpaw_psl.1.0.0.UPF
     MD5 check sum: ae98473e6dc62675f0d0baffdab24f65
     Pseudo is Projector augmented-wave, Zval =  1.0
     Generated using 'atomic' code by A. Dal Corso  v.6.7MaX
     Shape of augmentation charge: PSQ
     Using radial grid of  929 points,  2 beta functions with:
                l(1) =   0
                l(2) =   0
     Q(r) pseudized with 0 coefficients

     atomic species   valence    mass     pseudopotential
        Pt            10.00   195.08400     Pt( 1.00)
        C              4.00    12.01100     C ( 1.00)
        H              1.00     1.00800     H ( 1.00)

     No symmetry found

   Cartesian axes

     site n.     atom                  positions (alat units)
         1           Pt  tau(   1) = (   0.0000000   0.0000000   1.0017346  )
         2           Pt  tau(   2) = (   0.3333333   0.0000000   1.0017346  )
         3           Pt  tau(   3) = (   0.6666667   0.0000000   1.0017346  )
         4           Pt  tau(   4) = (   0.1666667   0.2886751   1.0017346  )
         5           Pt  tau(   5) = (   0.5000000   0.2886751   1.0017346  )
         6           Pt  tau(   6) = (   0.8333333   0.2886751   1.0017346  )
         7           Pt  tau(   7) = (   0.3333333   0.5773503   1.0017346  )
         8           Pt  tau(   8) = (   0.6666667   0.5773503   1.0017346  )
         9           Pt  tau(   9) = (   1.0000000   0.5773503   1.0017346  )
        10           Pt  tau(  10) = (   0.1666667   0.0962250   1.2739001  )
        11           Pt  tau(  11) = (   0.5000000   0.0962250   1.2739001  )
        12           Pt  tau(  12) = (   0.8333333   0.0962250   1.2739001  )
        13           Pt  tau(  13) = (   0.3333333   0.3849002   1.2739001  )
        14           Pt  tau(  14) = (   0.6666667   0.3849002   1.2739001  )
        15           Pt  tau(  15) = (   1.0000000   0.3849002   1.2739001  )
        16           Pt  tau(  16) = (   0.5000000   0.6735753   1.2739001  )
        17           Pt  tau(  17) = (   0.8333333   0.6735753   1.2739001  )
        18           Pt  tau(  18) = (   1.1666667   0.6735753   1.2739001  )
        19           Pt  tau(  19) = (   0.0004241   0.1925074   1.5407577  )
        20           Pt  tau(  20) = (   0.3361380   0.1939755   1.5469827  )
        21           Pt  tau(  21) = (   0.6649952   0.1938631   1.5467703  )
        22           Pt  tau(  22) = (   0.1672696   0.4815631   1.5422322  )
        23           Pt  tau(  23) = (   0.5005695   0.4794271   1.5469034  )
        24           Pt  tau(  24) = (   0.8336390   0.4815274   1.5422269  )
        25           Pt  tau(  25) = (   0.3336048   0.7700104   1.5418881  )
        26           Pt  tau(  26) = (   0.6675010   0.7702461   1.5420102  )
        27           Pt  tau(  27) = (   1.0004577   0.7704431   1.5426683  )
        28           Pt  tau(  28) = (   0.0011673   0.0007125   1.8163213  )
        29           Pt  tau(  29) = (   0.3342605   0.0008095   1.8170870  )
        30           Pt  tau(  30) = (   0.6681677   0.0006676   1.8166583  )
        31           Pt  tau(  31) = (   0.1670064   0.2889276   1.8145249  )
        32           Pt  tau(  32) = (   0.5008764   0.2902052   1.8452952  )
        33           Pt  tau(  33) = (   0.8353534   0.2891542   1.8146975  )
        34           Pt  tau(  34) = (   0.3345839   0.5789009   1.8163735  )
        35           Pt  tau(  35) = (   0.6679960   0.5788497   1.8163502  )
        36           Pt  tau(  36) = (   1.0011447   0.5783374   1.8163037  )
        37           C   tau(  37) = (   0.5098530   0.2985660   2.0823241  )
        38           C   tau(  38) = (   0.3883779   0.3116179   2.1810522  )
        39           H   tau(  39) = (   0.6303406   0.2912874   2.1253776  )
        40           H   tau(  40) = (   0.4102639   0.3150132   2.3072870  )
        41           H   tau(  41) = (   0.2664700   0.3192179   2.1451666  )

     number of k points=    13  Marzari-Vanderbilt smearing, width (Ry)=  0.0200
                       cart. coord. in units 2pi/alat
        k(    1) = (   0.0000000   0.0000000   0.0000000), wk =   0.0800000
        k(    2) = (   0.0000000   0.2309401   0.0000000), wk =   0.1600000
        k(    3) = (   0.0000000   0.4618802   0.0000000), wk =   0.1600000
        k(    4) = (   0.2000000  -0.1154701   0.0000000), wk =   0.1600000
        k(    5) = (   0.2000000   0.1154701   0.0000000), wk =   0.1600000
        k(    6) = (   0.2000000   0.3464102   0.0000000), wk =   0.1600000
        k(    7) = (   0.2000000  -0.5773503   0.0000000), wk =   0.1600000
        k(    8) = (   0.2000000  -0.3464102   0.0000000), wk =   0.1600000
        k(    9) = (   0.4000000  -0.2309401   0.0000000), wk =   0.1600000
        k(   10) = (   0.4000000  -0.0000000   0.0000000), wk =   0.1600000
        k(   11) = (   0.4000000   0.2309401   0.0000000), wk =   0.1600000
        k(   12) = (   0.4000000  -0.6928203   0.0000000), wk =   0.1600000
        k(   13) = (   0.4000000  -0.4618802   0.0000000), wk =   0.1600000

     Check: negative core charge=   -0.000002

     Initial potential from superposition of free atoms

     starting charge  370.99378, renormalised to  371.00000

     negative rho (up, down):  1.147E-02 0.000E+00

     %%%%%%%%%%%%%%%%%%%%%%%%%%%%%%%%%%%%%%%%%%%%%%%%%%%%%%%%%%%%%%%%%%%%%%%%
     %                                                                      %
     % You are using vdW-DF, which was implemented by the Thonhauser group. %
     % Please cite the following two papers that made this development      %
     % possible and the two reviews that describe the various versions:     %
     %                                                                      %
     %   T. Thonhauser et al., PRL 115, 136402 (2015).                      %
     %   T. Thonhauser et al., PRB 76, 125112 (2007).                       %
     %   K. Berland et al., Rep. Prog. Phys. 78, 066501 (2015).             %
     %   D.C. Langreth et al., J. Phys.: Condens. Matter 21, 084203 (2009). %
     %                                                                      %
     %                                                                      %
     % If you are calculating the stress with vdW-DF, please also cite:     %
     %                                                                      %
     %   R. Sabatini et al., J. Phys.: Condens. Matter 24, 424209 (2012).   %
     %                                                                      %
     %%%%%%%%%%%%%%%%%%%%%%%%%%%%%%%%%%%%%%%%%%%%%%%%%%%%%%%%%%%%%%%%%%%%%%%%

     Starting wfcs are  335 randomized atomic wfcs
     Checking if some PAW data can be deallocated...

     Self-consistent Calculation

     iteration #  1     ecut=    60.00 Ry     beta= 0.70
     Davidson diagonalization with overlap
     ethr =  1.00E-02,  avg # of iterations =  2.0

     Threshold (ethr) on eigenvalues was too large:
     Diagonalizing with lowered threshold

     Davidson diagonalization with overlap
     ethr =  8.01E-04,  avg # of iterations =  2.7

[...]

     total energy              =  -27795.59582110 Ry
     estimated scf accuracy    <       3.19519934 Ry

[...]

     iteration #  6     ecut=    60.00 Ry     beta= 0.70
     Davidson diagonalization with overlap
     c_bands:  2 eigenvalues not converged
     c_bands:  1 eigenvalues not converged
     c_bands:  1 eigenvalues not converged
     ethr =  1.13E-05,  avg # of iterations = 13.5

[...]

     iteration # 10     ecut=    60.00 Ry     beta= 0.70
     Davidson diagonalization with overlap
     c_bands:  2 eigenvalues not converged
     c_bands:  2 eigenvalues not converged
     ethr =  5.95E-07,  avg # of iterations =  8.0

[...]

     total energy              =  -27795.88643396 Ry
     estimated scf accuracy    <       0.00000209 Ry

     iteration # 20     ecut=    60.00 Ry     beta= 0.70
     Davidson diagonalization with overlap
     ethr =  5.65E-10,  avg # of iterations =  2.2

[...]

     End of self-consistent calculation

          k = 0.0000 0.0000 0.0000 ( 91953 PWs)   bands (ev):

   -12.3180  -7.6308  -7.2007  -5.9208  -4.8947  -4.8215  -4.8080  -4.8024
    -4.7987  -4.7879  -4.7667  -4.7630  -4.6756  -4.2505  -4.2448  -4.2403
    -4.2372  -4.2247  -4.2235  -3.9111  -3.7783  -3.7761  -3.7654  -3.7569
    -3.7542  -3.7026  -3.5570  -3.5541  -3.5497  -3.5457  -3.5422  -3.4569
    -3.3331  -3.3232  -3.3207  -3.3161  -3.3130  -3.3108  -3.3066  -3.3058
    -3.2798  -3.2706  -3.2565  -3.2524  -2.7166  -2.7118  -2.7053  -2.6867
    -2.6722  -2.6494  -2.6222  -2.6175  -2.6140  -2.5970  -2.4817  -2.4774
    -2.4209  -2.3951  -2.0650  -2.0069  -1.8942  -1.8862  -1.8755  -1.8574
    -1.8352  -1.7742  -1.7566  -1.7174  -1.7101  -1.7078  -1.6883  -1.6807
    -1.6634  -1.6606  -1.6570  -1.6403  -1.6306  -1.6283  -1.6072  -1.5981
    -1.5602  -1.5129  -1.4784  -1.4709  -1.4649  -1.4603  -1.3142  -1.3095
    -1.3001  -1.2880  -1.2716  -1.2573  -1.2231  -1.2211  -1.2022  -1.1740
    -1.1655  -1.1273  -1.1017  -1.0976  -1.0453  -1.0448  -1.0060  -1.0047
    -0.9392  -0.9236  -0.8616  -0.8467  -0.8398  -0.8295  -0.8048  -0.5210
    -0.4635  -0.4061  -0.3948  -0.3596  -0.3466  -0.3462  -0.3394  -0.3253
    -0.2795  -0.2788  -0.2696  -0.2051  -0.1907  -0.1835  -0.1286  -0.0691
    -0.0426  -0.0390   0.0237   0.0359   0.0700   0.0961   0.1281   0.1378
     0.1435   0.1463   0.2863   0.3623   0.3834   0.3888   0.3897   0.4158
     0.4496   0.4578   0.5966   0.6375   0.6436   0.6475   0.6582   0.6707
     0.7153   0.8023   0.8053   0.8167   0.8231   0.8249   0.8447   0.8484
     0.8579   0.8615   0.8654   0.9149   0.9450   0.9670   0.9764   0.9884
     0.9945   1.0135   1.0386   1.0402   1.0804   1.0835   1.0953   1.0985
     1.1178   1.1263   1.1363   1.1463   1.2047   1.2058   1.2247   1.2275
     1.2289   1.2324   1.2506   1.3258   1.3293   1.3299   1.3340   1.3548
     1.3564   1.5291   1.5378   1.6258   1.6298   1.6643   1.6672   1.6704
     1.6813   1.9922   2.5016   2.5382   2.5509   2.5569   2.5672   2.6000
     3.8930   4.8108   4.8281   4.8670   4.8778   4.8944   5.8049   5.8693
     6.0734   6.4290   6.4552   6.4705   6.4741   6.4873   6.5334

[...]

          k = 0.4000-0.4619 0.0000 ( 91856 PWs)   bands (ev):

   -12.3178  -7.6254  -6.2530  -6.2281  -5.6352  -5.0500  -5.0036  -4.7323
    -4.4762  -4.4690  -4.3350  -4.2988  -4.1961  -4.1864  -4.0927  -4.0783
    -3.9951  -3.9786  -3.9568  -3.9421  -3.9289  -3.9093  -3.8870  -3.8433
    -3.7623  -3.7519  -3.7277  -3.7029  -3.6443  -3.6241  -3.5317  -3.4954
    -3.4354  -3.3534  -3.3433  -3.3370  -3.3194  -3.2807  -3.2105  -3.1969
    -3.1139  -3.0878  -2.9225  -2.9098  -2.8756  -2.7969  -2.7680  -2.7187
    -2.7024  -2.5952  -2.5699  -2.5286  -2.5156  -2.4937  -2.4518  -2.4356
    -2.4062  -2.3291  -2.3062  -2.2941  -2.2795  -2.2688  -2.2568  -2.2461
    -2.2086  -2.1630  -2.0869  -2.0546  -2.0158  -1.9994  -1.9472  -1.8828
    -1.8539  -1.8389  -1.8153  -1.7986  -1.7596  -1.7334  -1.6689  -1.6420
    -1.6372  -1.6269  -1.6043  -1.5707  -1.5306  -1.4955  -1.4649  -1.4439
    -1.4104  -1.3937  -1.3255  -1.2796  -1.2328  -1.2154  -1.2065  -1.1998
    -1.1790  -1.1549  -1.1416  -1.1064  -1.0949  -1.0824  -1.0640  -1.0553
    -1.0217  -1.0065  -0.9892  -0.9735  -0.9654  -0.9521  -0.9229  -0.9149
    -0.8797  -0.7705  -0.6966  -0.6131  -0.5755  -0.5659  -0.5214  -0.4732
    -0.4527  -0.4195  -0.3987  -0.3700  -0.3483  -0.3377  -0.3061  -0.2815
    -0.2343  -0.2045  -0.1751  -0.1575  -0.0999  -0.0822  -0.0298  -0.0148
     0.1055   0.1240   0.1537   0.2005   0.2231   0.2632   0.2919   0.3093
     0.3288   0.3413   0.3592   0.3818   0.4123   0.4673   0.4989   0.5293
     0.5572   0.5849   0.5935   0.6206   0.6276   0.7110   0.7385   0.7821
     0.8558   0.9170   0.9483   0.9983   1.0310   1.0452   1.1258   1.1634
     1.1737   1.2144   1.2739   1.3176   1.3445   1.3648   1.3875   1.3917
     1.4098   1.4412   1.4629   1.5416   1.5474   1.5603   1.5814   1.6027
     1.6059   1.6194   1.6743   1.7802   1.7922   1.8167   1.8231   1.8331
     1.8874   1.9391   2.0091   2.1424   2.7330   2.9698   2.9738   3.1598
     3.2390   3.3503   3.3605   3.3872   3.6266   3.9712   3.9821   4.1301
     4.4333   4.4614   4.5538   4.5823   4.6258   4.7923   4.8814   4.9579
     5.1554   5.3371   5.4217   5.5882   5.9137   6.0572   6.0849

     the Fermi energy is     1.5901 ev

!    total energy              =  -27795.88643343 Ry

     total all-electron energy =  -1326798.180036 Ry
     estimated scf accuracy    <       0.00000053 Ry
     smearing contrib. (-TS)   =       0.00312335 Ry
     internal energy E=F+TS    =  -27795.88955679 Ry

     The total energy is F=E-TS. E is the sum of the following terms:
     one-electron contribution =  -28620.18366462 Ry
     hartree contribution      =   14608.81425260 Ry
     xc contribution           =    -901.76286139 Ry
     ewald contribution        =   12604.29715367 Ry
     one-center paw contrib.   =  -25487.05443704 Ry

     convergence has been achieved in  20 iterations

[...]

     Forces acting on atoms (cartesian axes, Ry/au):

     atom    1 type  1   force =    -0.00005608   -0.00035471   -0.00682108
     atom    2 type  1   force =    -0.00077135   -0.00007715   -0.00315662
     atom    3 type  1   force =     0.00059027    0.00001963   -0.00321471
     atom    4 type  1   force =    -0.00048415   -0.00046587   -0.00329141
     atom    5 type  1   force =    -0.00003256    0.00002150   -0.00318234
     atom    6 type  1   force =     0.00028706   -0.00043255   -0.00343063
     atom    7 type  1   force =     0.00021223    0.00057455   -0.00353723
     atom    8 type  1   force =    -0.00042559    0.00047395   -0.00337078
     atom    9 type  1   force =    -0.00007355   -0.00018457   -0.00306253
     atom   10 type  1   force =     0.00060858   -0.00026620   -0.00093456
     atom   11 type  1   force =    -0.00000001    0.00227668    0.01005408
     atom   12 type  1   force =    -0.00003257   -0.00014614   -0.00093986
     atom   13 type  1   force =     0.00216352   -0.00090958    0.00984595
     atom   14 type  1   force =    -0.00176522   -0.00098690    0.00980698
     atom   15 type  1   force =     0.00012655    0.00034753    0.00146811
     atom   16 type  1   force =     0.00019393    0.00010700    0.00007006
     atom   17 type  1   force =     0.00000414    0.00032797    0.00229499
     atom   18 type  1   force =     0.00027393    0.00018985    0.00228935
     atom   19 type  1   force =     0.00004653    0.00031939    0.00066398
     atom   20 type  1   force =    -0.00001191    0.00005618   -0.00032610
     atom   21 type  1   force =     0.00007481    0.00003966   -0.00030229
     atom   22 type  1   force =     0.00007232   -0.00000546    0.00023266
     atom   23 type  1   force =    -0.00002817    0.00013512   -0.00030804
     atom   24 type  1   force =    -0.00005427   -0.00000841    0.00029645
     atom   25 type  1   force =    -0.00008942    0.00002842    0.00028417
     atom   26 type  1   force =     0.00009551    0.00002616    0.00030583
     atom   27 type  1   force =    -0.00000821    0.00021221    0.00012598
     atom   28 type  1   force =    -0.00006562    0.00022886   -0.00052549
     atom   29 type  1   force =    -0.00031013   -0.00033581   -0.00001779
     atom   30 type  1   force =     0.00009332   -0.00030065   -0.00005935
     atom   31 type  1   force =    -0.00058901    0.00021190    0.00028732
     atom   32 type  1   force =    -0.00003319    0.00008809   -0.00040348
     atom   33 type  1   force =     0.00040594    0.00000251    0.00009919
     atom   34 type  1   force =    -0.00038309    0.00036420   -0.00014275
     atom   35 type  1   force =     0.00007729    0.00044743   -0.00002566
     atom   36 type  1   force =    -0.00003981    0.00002522   -0.00043961
     atom   37 type  2   force =    -0.00051751   -0.00109238   -0.00117809
     atom   38 type  2   force =     0.00312355   -0.00090799    0.00235168
     atom   39 type  3   force =    -0.00045457   -0.00004157    0.00060455
     atom   40 type  3   force =     0.00117334   -0.00026540    0.00053326
     atom   41 type  3   force =    -0.00339685    0.00025729   -0.00294418

     Total force =     0.006707     Total SCF correction =     0.002056
     SCF correction compared to forces is large: reduce conv_thr to get better values

[...]

     negative rho (up, down):  1.259E-02 0.000E+00

     negative rho (up, down):  1.259E-02 0.000E+00
 BEEFens 2000 ensemble energies
             -0.603390934259948E+02
             -0.359352869351278E+01
             -0.157521528205494E+02
              0.427097408061090E+02
             -0.220145775315071E+02
             -0.204359801887366E+02
             -0.349903921958245E+02
             -0.859811323527307E+02
             -0.462966680761478E+02
             -0.470553625971842E+02
             -0.367362248829018E+02
              0.226070044682105E+01
              0.404402669566230E+01
              0.763610505375695E+01
              0.263123026346142E+01
              0.472436655665977E+02
             -0.207639708301959E+02
             -0.229323169059216E+02
              0.191799832698932E+02
             -0.111796203713761E+03
              0.533300315399985E+02
             -0.288758027004105E+02
             -0.331036387030176E+01
             -0.113649579928228E+02
             -0.882568835300333E+01
             -0.458322838406579E+01
              0.878057502822657E+02
             -0.186209398201071E+02
             -0.893977389191514E+01
             -0.515390440959694E+02
              0.811522253234850E+02
             -0.186718599170378E+02
             -0.372683852496120E+02
              0.248031397573528E+02
             -0.283303546105185E+01
              0.162745543257473E+02
             -0.485976667050244E+01
              0.107980994834655E+02
              0.286677246570527E+02
             -0.102712322342993E+03
              0.555591046882737E+02
              0.141756326229045E+02
             -0.168260708260357E+01
             -0.359661238767387E+02
              0.122614584171603E+02
             -0.146075700583941E+02
              0.395764607635962E+02
              0.362902619165559E+02
             -0.306926640410943E+02
             -0.273333848377951E+02
             -0.326842387710440E+02
             -0.350295298287459E+02
              0.135547251800756E+02
             -0.487912092368744E+02
              0.114798494736198E+02
              0.619850983939872E+02
              0.631513774498960E+02
              0.354233692760786E+02
              0.153054427696787E+02
              0.268981911475124E+02
[...]
             -0.702198043469834E+02
             -0.883447101372326E+00
             -0.248685110258399E+01
             -0.876455212155918E+01
             -0.183573451063035E+01
             -0.649299084499885E+02
             -0.209857617144051E+02
              0.533520520185293E+01
              0.894625507837657E+01
              0.466210808970329E+02
             -0.395471444048071E+02
              0.654120574737245E+02
             -0.423140433071048E+02
              0.209103762521451E+02
              0.347959666400057E+02

 BEEF-vdW xc energy contributions
           1 :   -778.733965725119
           2 :    715.537343481751
           3 :   -606.066528091100
           4 :    477.128454443509
           5 :   -356.028415463346
           6 :    262.479855777659
           7 :   -204.103926930865
           8 :    176.402585924155
           9 :   -166.757574220052
          10 :    160.562521064294
          11 :   -146.994186524303
          12 :    122.251121104194
          13 :   -89.4108491677986
          14 :    55.5276592330879
          15 :   -27.6438051314854
          16 :    9.51735518884664
          17 :  -0.338454858211549
          18 :   -4.30566385941722
          19 :    9.92716878894907
          20 :   -20.4228178393612
          21 :    36.3954321833809
          22 :   -55.1650094563530
          23 :    72.2962578440522
          24 :   -83.8134545002754
          25 :    88.0124795385766
          26 :   -86.0755306333175
          27 :    81.2986411004108
          28 :   -77.3967367481083
          29 :    76.7435023188891
          30 :   -79.3752671353054
          31 :   -85.3494723165487
          32 :   -65.4362358804827

     Writing output data file ./pwscf.save/

     General routines

     Parallel routines

   This run was terminated on:  18:21:13  26Sep2022

   JOB DONE.