     Program PWSCF v.6.7MaX starts on 20May2022 at 17:59:52

     Reading input from chchch3-ensemble.in
Warning: card &CELL ignored
Warning: card / ignored

     Current dimensions of program PWSCF are:
     Max number of different atomic species (ntypx) = 10
     Max number of k-points (npk) =  40000
     Max angular momentum in pseudopotentials (lmaxx) =  3
     file Pt.pbe-n-kjpaw_psl.1.0.0.UPF: wavefunction(s)  6S 5D renormalized
     file C.pbe-n-kjpaw_psl.1.0.0.UPF: wavefunction(s)  2S 2P renormalized
     file H.pbe-kjpaw_psl.1.0.0.UPF: wavefunction(s)  1S renormalized

     IMPORTANT: XC functional enforced from input :
     Exchange-correlation= BEEF-VDW
                           (   1   4  43  14   2   0   0)
     Any further DFT definition will be discarded
     Please, verify this is what you really want

     Subspace diagonalization in iterative solution of the eigenvalue problem:
     a serial algorithm will be used

     bravais-lattice index     =            0
     lattice parameter (alat)  =      16.0349  a.u.
     unit-cell volume          =   12148.8546 (a.u.)^3
     number of atoms/cell      =           44
     number of atomic types    =            3
     number of electrons       =       377.00
     number of Kohn-Sham states=          227
     kinetic-energy cutoff     =      60.0000  Ry
     charge density cutoff     =     240.0000  Ry
     scf convergence threshold =      1.0E-06
     mixing beta               =       0.7000
     number of iterations used =            8  local-TF  mixing
     Exchange-correlation= BEEF-VDW
                           (   1   4  43  14   2   0   0)

     celldm(1)=  16.034858  celldm(2)=   0.000000  celldm(3)=   0.000000
     celldm(4)=   0.000000  celldm(5)=   0.000000  celldm(6)=   0.000000

     crystal axes: (cart. coord. in units of alat)
               a(1) = (   1.000000   0.000000   0.000000 )
               a(2) = (   0.500000   0.866025   0.000000 )
               a(3) = (   0.000000   0.000000   3.402588 )

     reciprocal axes: (cart. coord. in units 2 pi/alat)
               b(1) = (  1.000000 -0.577350  0.000000 )
               b(2) = (  0.000000  1.154701  0.000000 )
               b(3) = (  0.000000  0.000000  0.293894 )

     PseudoPot. # 1 for Pt read from file:
     /users/bkreitz1/quantum-espresso/potentials/Pt.pbe-n-kjpaw_psl.1.0.0.UPF
     MD5 check sum: 04dc8a03c51ece93fc7b5889c2958091
     Pseudo is Projector augmented-wave + core cor, Zval = 10.0
     Generated using 'atomic' code by A. Dal Corso  v.6.7MaX
     Shape of augmentation charge: PSQ
     Using radial grid of 1277 points,  6 beta functions with:
                l(1) =   0
                l(2) =   0
                l(3) =   1
                l(4) =   1
                l(5) =   2
                l(6) =   2
     Q(r) pseudized with 0 coefficients

     PseudoPot. # 2 for C  read from file:
     /users/bkreitz1/quantum-espresso/potentials/C.pbe-n-kjpaw_psl.1.0.0.UPF
     MD5 check sum: a169b0ebad56f5ec0d79c4633f80bf22
     Pseudo is Projector augmented-wave + core cor, Zval =  4.0
     Generated using 'atomic' code by A. Dal Corso  v.6.7MaX
     Shape of augmentation charge: PSQ
     Using radial grid of 1073 points,  4 beta functions with:
                l(1) =   0
                l(2) =   0
                l(3) =   1
                l(4) =   1
     Q(r) pseudized with 0 coefficients

     PseudoPot. # 3 for H  read from file:
     /users/bkreitz1/quantum-espresso/potentials/H.pbe-kjpaw_psl.1.0.0.UPF
     MD5 check sum: ae98473e6dc62675f0d0baffdab24f65
     Pseudo is Projector augmented-wave, Zval =  1.0
     Generated using 'atomic' code by A. Dal Corso  v.6.7MaX
     Shape of augmentation charge: PSQ
     Using radial grid of  929 points,  2 beta functions with:
                l(1) =   0
                l(2) =   0
     Q(r) pseudized with 0 coefficients

     atomic species   valence    mass     pseudopotential
        Pt            10.00   195.08400     Pt( 1.00)
        C              4.00    12.01100     C ( 1.00)
        H              1.00     1.00800     H ( 1.00)

     No symmetry found

   Cartesian axes

     site n.     atom                  positions (alat units)
         1           Pt  tau(   1) = (   0.0000000   0.0000000   1.0017346  )
         2           Pt  tau(   2) = (   0.3333333   0.0000000   1.0017346  )
         3           Pt  tau(   3) = (   0.6666667   0.0000000   1.0017346  )
         4           Pt  tau(   4) = (   0.1666667   0.2886751   1.0017346  )
         5           Pt  tau(   5) = (   0.5000000   0.2886751   1.0017346  )
         6           Pt  tau(   6) = (   0.8333333   0.2886751   1.0017346  )
         7           Pt  tau(   7) = (   0.3333333   0.5773503   1.0017346  )
         8           Pt  tau(   8) = (   0.6666667   0.5773503   1.0017346  )
         9           Pt  tau(   9) = (   1.0000000   0.5773503   1.0017346  )
        10           Pt  tau(  10) = (   0.1666667   0.0962250   1.2739001  )
        11           Pt  tau(  11) = (   0.5000000   0.0962250   1.2739001  )
        12           Pt  tau(  12) = (   0.8333333   0.0962250   1.2739001  )
        13           Pt  tau(  13) = (   0.3333333   0.3849002   1.2739001  )
        14           Pt  tau(  14) = (   0.6666667   0.3849002   1.2739001  )
        15           Pt  tau(  15) = (   1.0000000   0.3849002   1.2739001  )
        16           Pt  tau(  16) = (   0.5000000   0.6735753   1.2739001  )
        17           Pt  tau(  17) = (   0.8333333   0.6735753   1.2739001  )
        18           Pt  tau(  18) = (   1.1666667   0.6735753   1.2739001  )
        19           Pt  tau(  19) = (  -0.0007752   0.1917224   1.5424316  )
        20           Pt  tau(  20) = (   0.3326417   0.1916185   1.5415802  )
        21           Pt  tau(  21) = (   0.6665080   0.1919348   1.5425791  )
        22           Pt  tau(  22) = (   0.1659532   0.4805613   1.5419629  )
        23           Pt  tau(  23) = (   0.5012734   0.4815198   1.5460390  )
        24           Pt  tau(  24) = (   0.8307597   0.4815387   1.5471459  )
        25           Pt  tau(  25) = (   0.3332177   0.7691729   1.5426109  )
        26           Pt  tau(  26) = (   0.6660016   0.7668931   1.5467390  )
        27           Pt  tau(  27) = (   0.9993608   0.7689888   1.5428246  )
        28           Pt  tau(  28) = (  -0.0012469  -0.0008257   1.8170764  )
        29           Pt  tau(  29) = (   0.3320270  -0.0008752   1.8160012  )
        30           Pt  tau(  30) = (   0.6654293  -0.0016459   1.8164824  )
        31           Pt  tau(  31) = (   0.1654718   0.2871967   1.8166535  )
        32           Pt  tau(  32) = (   0.4981814   0.2860591   1.8146952  )
        33           Pt  tau(  33) = (   0.8325875   0.2868680   1.8173144  )
        34           Pt  tau(  34) = (   0.3308851   0.5758324   1.8155035  )
        35           Pt  tau(  35) = (   0.6645438   0.5752972   1.8427736  )
        36           Pt  tau(  36) = (   0.9990576   0.5755302   1.8166655  )
        37           C   tau(  37) = (   0.6584760   0.5771778   2.0793980  )
        38           C   tau(  38) = (   0.5578536   0.4996990   2.1731281  )
        39           C   tau(  39) = (   0.5635012   0.5079973   2.3502586  )
        40           H   tau(  40) = (   0.7505471   0.6514139   2.1292815  )
        41           H   tau(  41) = (   0.4658085   0.4254537   2.1236907  )
        42           H   tau(  42) = (   0.6571220   0.5858483   2.3917182  )
        43           H   tau(  43) = (   0.4512087   0.5508516   2.3972866  )
        44           H   tau(  44) = (   0.5829518   0.3907518   2.4018315  )

     number of k points=    13  Marzari-Vanderbilt smearing, width (Ry)=  0.0200
                       cart. coord. in units 2pi/alat
        k(    1) = (   0.0000000   0.0000000   0.0000000), wk =   0.0800000
        k(    2) = (   0.0000000   0.2309401   0.0000000), wk =   0.1600000
        k(    3) = (   0.0000000   0.4618802   0.0000000), wk =   0.1600000
        k(    4) = (   0.2000000  -0.1154701   0.0000000), wk =   0.1600000
        k(    5) = (   0.2000000   0.1154701   0.0000000), wk =   0.1600000
        k(    6) = (   0.2000000   0.3464102   0.0000000), wk =   0.1600000
        k(    7) = (   0.2000000  -0.5773503   0.0000000), wk =   0.1600000
        k(    8) = (   0.2000000  -0.3464102   0.0000000), wk =   0.1600000
        k(    9) = (   0.4000000  -0.2309401   0.0000000), wk =   0.1600000
        k(   10) = (   0.4000000  -0.0000000   0.0000000), wk =   0.1600000
        k(   11) = (   0.4000000   0.2309401   0.0000000), wk =   0.1600000
        k(   12) = (   0.4000000  -0.6928203   0.0000000), wk =   0.1600000
        k(   13) = (   0.4000000  -0.4618802   0.0000000), wk =   0.1600000

     Check: negative core charge=   -0.000002

     Initial potential from superposition of free atoms

     starting charge  376.99372, renormalised to  377.00000

     negative rho (up, down):  1.109E-02 0.000E+00

     %%%%%%%%%%%%%%%%%%%%%%%%%%%%%%%%%%%%%%%%%%%%%%%%%%%%%%%%%%%%%%%%%%%%%%%%
     %                                                                      %
     % You are using vdW-DF, which was implemented by the Thonhauser group. %
     % Please cite the following two papers that made this development      %
     % possible and the two reviews that describe the various versions:     %
     %                                                                      %
     %   T. Thonhauser et al., PRL 115, 136402 (2015).                      %
     %   T. Thonhauser et al., PRB 76, 125112 (2007).                       %
     %   K. Berland et al., Rep. Prog. Phys. 78, 066501 (2015).             %
     %   D.C. Langreth et al., J. Phys.: Condens. Matter 21, 084203 (2009). %
     %                                                                      %
     %                                                                      %
     % If you are calculating the stress with vdW-DF, please also cite:     %
     %                                                                      %
     %   R. Sabatini et al., J. Phys.: Condens. Matter 24, 424209 (2012).   %
     %                                                                      %
     %%%%%%%%%%%%%%%%%%%%%%%%%%%%%%%%%%%%%%%%%%%%%%%%%%%%%%%%%%%%%%%%%%%%%%%%

     Starting wfcs are  341 randomized atomic wfcs
     Checking if some PAW data can be deallocated...

     Self-consistent Calculation

     iteration #  1     ecut=    60.00 Ry     beta= 0.70
     Davidson diagonalization with overlap
     ethr =  1.00E-02,  avg # of iterations =  2.5

     Threshold (ethr) on eigenvalues was too large:
     Diagonalizing with lowered threshold

     Davidson diagonalization with overlap
     ethr =  8.81E-04,  avg # of iterations =  2.5

[...]

     total energy              =  -27817.11193944 Ry
     estimated scf accuracy    <       3.55444494 Ry

[...]

     iteration #  6     ecut=    60.00 Ry     beta= 0.70
     Davidson diagonalization with overlap
     c_bands:  1 eigenvalues not converged
     c_bands:  2 eigenvalues not converged
     ethr =  1.44E-05,  avg # of iterations = 12.4

[...]

     iteration #  9     ecut=    60.00 Ry     beta= 0.70
     Davidson diagonalization with overlap
     c_bands:  2 eigenvalues not converged
     ethr =  4.51E-06,  avg # of iterations = 14.3

[...]

     total energy              =  -27817.35097369 Ry
     estimated scf accuracy    <       0.00000113 Ry

     iteration # 22     ecut=    60.00 Ry     beta= 0.70
     Davidson diagonalization with overlap
     ethr =  3.00E-10,  avg # of iterations =  1.2

[...]

     End of self-consistent calculation

          k = 0.0000 0.0000 0.0000 ( 95355 PWs)   bands (ev):

   -13.1931 -10.4840  -7.3732  -7.2932  -6.0357  -5.0047  -4.9177  -4.9087
    -4.9058  -4.9029  -4.8929  -4.8720  -4.8690  -4.6457  -4.3487  -4.3467
    -4.3449  -4.3364  -4.3298  -4.2854  -4.1596  -3.8819  -3.8801  -3.8710
    -3.8647  -3.8618  -3.8341  -3.6689  -3.6609  -3.6548  -3.6532  -3.6482
    -3.6318  -3.5993  -3.4376  -3.4311  -3.4242  -3.4230  -3.4217  -3.4182
    -3.4112  -3.4093  -3.3844  -3.3791  -3.3719  -3.3550  -2.8245  -2.8210
    -2.8128  -2.7937  -2.7848  -2.7543  -2.7329  -2.7268  -2.7249  -2.7095
    -2.6206  -2.5825  -2.5598  -2.5043  -2.4890  -2.1612  -2.0873  -2.0016
    -1.9912  -1.9848  -1.9669  -1.9370  -1.8761  -1.8543  -1.8176  -1.8136
    -1.8116  -1.7939  -1.7869  -1.7675  -1.7646  -1.7616  -1.7441  -1.7394
    -1.7339  -1.7104  -1.7027  -1.6688  -1.6129  -1.5853  -1.5766  -1.5715
    -1.5631  -1.4128  -1.4100  -1.4048  -1.3813  -1.3719  -1.3655  -1.3417
    -1.3313  -1.2907  -1.2810  -1.2638  -1.2396  -1.2085  -1.1985  -1.1503
    -1.1500  -1.1115  -1.1103  -1.0539  -1.0306  -0.9689  -0.9527  -0.9398
    -0.9311  -0.9072  -0.5913  -0.5614  -0.5009  -0.4910  -0.4639  -0.4531
    -0.4487  -0.4460  -0.4290  -0.3871  -0.3865  -0.3785  -0.3170  -0.2935
    -0.2922  -0.2199  -0.1784  -0.1488  -0.1474  -0.0830  -0.0641  -0.0497
    -0.0068   0.0217   0.0331   0.0380   0.0431   0.2008   0.2559   0.2807
     0.2832   0.2847   0.3101   0.3479   0.3505   0.5139   0.5319   0.5352
     0.5386   0.5530   0.5888   0.6089   0.6984   0.7011   0.7126   0.7179
     0.7195   0.7388   0.7402   0.7533   0.7541   0.7613   0.8237   0.8408
     0.8668   0.8704   0.8838   0.8865   0.9082   0.9318   0.9690   0.9747
     0.9771   0.9928   1.0051   1.0127   1.0206   1.0306   1.0830   1.0996
     1.1017   1.1209   1.1210   1.1246   1.1263   1.1436   1.2199   1.2249
     1.2268   1.2305   1.2491   1.2503   1.4239   1.4351   1.5213   1.5251
     1.5590   1.5603   1.5627   1.5735   1.8780   2.3886   2.4285   2.4400
     2.4423   2.4730   2.4957   3.7766   4.6887   4.7236   4.7584   4.7699
     4.7782   5.4807   5.8375   5.8627   6.2339   6.3235   6.3567   6.3622
     6.3750   6.3825   6.4304

[...]

          k = 0.4000-0.4619 0.0000 ( 95386 PWs)   bands (ev):

   -13.1930 -10.4837  -7.3546  -6.3528  -6.3411  -5.7400  -5.1758  -5.1106
    -4.7265  -4.5815  -4.5001  -4.4393  -4.3969  -4.3044  -4.2871  -4.2176
    -4.1848  -4.1330  -4.0803  -4.0680  -4.0572  -4.0291  -4.0162  -3.9964
    -3.9880  -3.8680  -3.8543  -3.8413  -3.8078  -3.7917  -3.7291  -3.6593
    -3.6271  -3.5995  -3.5491  -3.4626  -3.4470  -3.4424  -3.4245  -3.3988
    -3.3193  -3.3150  -3.2138  -3.1995  -3.0325  -3.0156  -2.9949  -2.8985
    -2.8738  -2.8259  -2.8156  -2.7199  -2.6852  -2.6368  -2.6265  -2.6031
    -2.5802  -2.5418  -2.5296  -2.5003  -2.4228  -2.4150  -2.3968  -2.3752
    -2.3729  -2.3605  -2.3433  -2.3069  -2.2674  -2.2197  -2.1562  -2.1040
    -2.0973  -2.0587  -1.9889  -1.9536  -1.9410  -1.9144  -1.8850  -1.8673
    -1.8426  -1.7599  -1.7522  -1.7427  -1.7141  -1.7011  -1.6768  -1.6333
    -1.5984  -1.5723  -1.5408  -1.5109  -1.4984  -1.4338  -1.3861  -1.3579
    -1.3270  -1.3086  -1.2988  -1.2745  -1.2624  -1.2412  -1.2166  -1.2087
    -1.1868  -1.1656  -1.1589  -1.1118  -1.1074  -1.0921  -1.0851  -1.0780
    -1.0522  -1.0185  -1.0058  -0.9827  -0.8975  -0.7964  -0.7516  -0.6932
    -0.6740  -0.6541  -0.5756  -0.5595  -0.5259  -0.4946  -0.4769  -0.4503
    -0.4433  -0.4081  -0.3787  -0.3426  -0.3146  -0.2888  -0.2602  -0.2038
    -0.1825  -0.1409  -0.0642  -0.0122   0.0421   0.0585   0.0997   0.1173
     0.1445   0.1894   0.2134   0.2329   0.2350   0.2673   0.2936   0.3118
     0.3650   0.4006   0.4330   0.4575   0.4789   0.4891   0.5044   0.5227
     0.5942   0.6529   0.6846   0.7620   0.8069   0.8516   0.8930   0.9271
     0.9394   1.0457   1.0589   1.0693   1.1035   1.1854   1.2111   1.2371
     1.2595   1.2820   1.2890   1.3096   1.3456   1.3633   1.4358   1.4423
     1.4555   1.4735   1.4973   1.5075   1.5168   1.5702   1.6770   1.6853
     1.7135   1.7178   1.7305   1.7825   1.8209   1.9044   2.0324   2.6341
     2.8658   2.8690   3.0602   3.1338   3.2428   3.2582   3.2752   3.5003
     3.8668   3.8813   4.0351   4.3131   4.3530   4.4613   4.4770   4.5203
     4.6921   4.7735   4.8475   5.0448   5.2549   5.2962   5.4810   5.8638
     5.9280   5.9761   6.0995

     the Fermi energy is     1.4852 ev

!    total energy              =  -27817.35097255 Ry

     total all-electron energy =  -1326877.408663 Ry
     estimated scf accuracy    <       0.00000074 Ry
     smearing contrib. (-TS)   =       0.00331729 Ry
     internal energy E=F+TS    =  -27817.35428984 Ry

     The total energy is F=E-TS. E is the sum of the following terms:
     one-electron contribution =  -30622.26705942 Ry
     hartree contribution      =   15610.65166678 Ry
     xc contribution           =    -908.13807726 Ry
     ewald contribution        =   13595.99594044 Ry
     one-center paw contrib.   =  -25493.59676039 Ry

     convergence has been achieved in  22 iterations

[...]

     Forces acting on atoms (cartesian axes, Ry/au):

     atom    1 type  1   force =     0.00064439    0.00070996   -0.00354031
     atom    2 type  1   force =    -0.00011996    0.00071334   -0.00365544
     atom    3 type  1   force =    -0.00003016    0.00010265   -0.00314650
     atom    4 type  1   force =     0.00013409    0.00003691   -0.00675774
     atom    5 type  1   force =    -0.00056055    0.00002127   -0.00341936
     atom    6 type  1   force =     0.00088996    0.00025089   -0.00364144
     atom    7 type  1   force =    -0.00026030   -0.00039673   -0.00337379
     atom    8 type  1   force =     0.00018355    0.00018557   -0.00341862
     atom    9 type  1   force =     0.00040257   -0.00035652   -0.00360536
     atom   10 type  1   force =    -0.00031127   -0.00021586    0.00082603
     atom   11 type  1   force =    -0.00016675   -0.00047800    0.00255737
     atom   12 type  1   force =    -0.00004921   -0.00006682    0.00305819
     atom   13 type  1   force =    -0.00045447   -0.00015699   -0.00077643
     atom   14 type  1   force =     0.00026162    0.00166141    0.00972658
     atom   15 type  1   force =    -0.00033890   -0.00017737    0.00136183
     atom   16 type  1   force =     0.00148195   -0.00094952    0.00941973
     atom   17 type  1   force =    -0.00177740   -0.00129247    0.01029142
     atom   18 type  1   force =    -0.00040858   -0.00019185    0.00280862
     atom   19 type  1   force =     0.00006714    0.00013126   -0.00061384
     atom   20 type  1   force =    -0.00013496    0.00009587   -0.00058899
     atom   21 type  1   force =    -0.00017335   -0.00006251   -0.00052821
     atom   22 type  1   force =    -0.00002943   -0.00009128   -0.00061628
     atom   23 type  1   force =    -0.00026774   -0.00021544   -0.00020161
     atom   24 type  1   force =     0.00023065   -0.00012301    0.00020456
     atom   25 type  1   force =    -0.00023593    0.00005628   -0.00035403
     atom   26 type  1   force =     0.00005075    0.00042425    0.00012307
     atom   27 type  1   force =    -0.00007287    0.00006199   -0.00055238
     atom   28 type  1   force =    -0.00009113    0.00026934   -0.00017482
     atom   29 type  1   force =     0.00020363    0.00011639   -0.00028029
     atom   30 type  1   force =    -0.00010302    0.00015488   -0.00013991
     atom   31 type  1   force =    -0.00006296    0.00011870   -0.00022058
     atom   32 type  1   force =    -0.00022237   -0.00027343   -0.00013840
     atom   33 type  1   force =     0.00017992   -0.00004925   -0.00024153
     atom   34 type  1   force =    -0.00018086    0.00003499   -0.00010842
     atom   35 type  1   force =     0.00009307    0.00030676   -0.00100425
     atom   36 type  1   force =     0.00009736    0.00008690   -0.00025708
     atom   37 type  2   force =    -0.00017477   -0.00136174    0.00249734
     atom   38 type  2   force =     0.00107157   -0.00020585    0.00183992
     atom   39 type  2   force =     0.00087878   -0.00361369    0.00318186
     atom   40 type  3   force =    -0.00007318    0.00014966   -0.00053612
     atom   41 type  3   force =     0.00026710    0.00035536   -0.00015794
     atom   42 type  3   force =    -0.00029388    0.00007027   -0.00096072
     atom   43 type  3   force =     0.00034514    0.00015108   -0.00080182
     atom   44 type  3   force =    -0.00088920    0.00401233   -0.00408429

     Total force =     0.008766     Total SCF correction =     0.002548
     SCF correction compared to forces is large: reduce conv_thr to get better values

[...]

     negative rho (up, down):  1.280E-02 0.000E+00

     negative rho (up, down):  1.280E-02 0.000E+00
 BEEFens 2000 ensemble energies
             -0.608209403820525E+02
             -0.361255782312168E+01
             -0.158481628563576E+02
              0.430383104871967E+02
             -0.221673185146969E+02
             -0.205485878555173E+02
             -0.353441965886319E+02
             -0.867042538642106E+02
             -0.465370206130563E+02
             -0.473142011825383E+02
             -0.370083105183333E+02
              0.231003451895177E+01
              0.407495092075973E+01
              0.759073592282371E+01
              0.266107453391484E+01
              0.475926387486129E+02
             -0.209027005848997E+02
             -0.229913184298210E+02
              0.193618516526227E+02
             -0.112609203357773E+03
              0.537483061511845E+02
             -0.290116371449445E+02
             -0.335808531073008E+01
             -0.114255639079569E+02
             -0.879722558258914E+01
             -0.461040016846067E+01
              0.884495440206284E+02
             -0.188073741226065E+02
             -0.899446366799248E+01
             -0.519592902937311E+02
              0.816391628104177E+02
             -0.186889929037903E+02
             -0.375745653526720E+02
              0.249273749553035E+02
             -0.285318739760339E+01
              0.165018182990555E+02
             -0.483870435659713E+01
              0.107853927406819E+02
              0.289646077467341E+02
             -0.103435840257362E+03
              0.559649681610729E+02
              0.142672366840620E+02
             -0.178256492312516E+01
             -0.361812162043049E+02
              0.123511105468138E+02
             -0.147483915786963E+02
              0.399565453303279E+02
              0.365428777389047E+02
             -0.308197920925525E+02
             -0.275704003550147E+02
             -0.329174855636421E+02
             -0.353067560258674E+02
              0.137315773391119E+02
             -0.491770432958750E+02
              0.116037280982862E+02
              0.624361263022975E+02
              0.637186449747958E+02
              0.356544490992981E+02
              0.154208793877472E+02
              0.271471766293412E+02
[...]
             -0.707857693705577E+02
             -0.837155565726334E+00
             -0.247772636424578E+01
             -0.884424600748105E+01
             -0.181223241261426E+01
             -0.654070226478719E+02
             -0.210381940530252E+02
              0.544098453460073E+01
              0.905896147905145E+01
              0.469999280781801E+02
             -0.398677746274382E+02
              0.657824314963746E+02
             -0.426005088629979E+02
              0.211206878278704E+02
              0.351226768547856E+02

 BEEF-vdW xc energy contributions
           1 :   -783.996413290462
           2 :    719.914174149100
           3 :   -609.118683287390
           4 :    478.884755308034
           5 :   -356.787484577214
           6 :    262.624417864491
           7 :   -203.976713897532
           8 :    176.229105779799
           9 :   -166.626920209672
          10 :    160.457179084329
          11 :   -146.853740853374
          12 :    122.034942781113
          13 :   -89.1295600313614
          14 :    55.2341170375485
          15 :   -27.4018363239264
          16 :    9.36976569831404
          17 :  -0.290536900786833
          18 :   -4.28364801989164
          19 :    9.88313277941324
          20 :   -20.3987475884070
          21 :    36.4062866891207
          22 :   -55.1961820018075
          23 :    72.3184352567424
          24 :   -83.8034374543619
          25 :    87.9671086295419
          26 :   -86.0101498507127
          27 :    81.2357180833658
          28 :   -77.3545543327784
          29 :    76.7248796177370
          30 :   -79.3619176395096
          31 :   -86.0769616900388
          32 :   -65.9052769673182

     Writing output data file ./pwscf.save/

     General routines

     Parallel routines

   This run was terminated on:  22:14:40  20May2022

   JOB DONE.