     Program PWSCF v.6.7MaX starts on  4Jan2023 at 10:21:56

     Reading input from chchc-tri-ensemble.in
Warning: card &CELL ignored
Warning: card / ignored

     Current dimensions of program PWSCF are:
     Max number of different atomic species (ntypx) = 10
     Max number of k-points (npk) =  40000
     Max angular momentum in pseudopotentials (lmaxx) =  3
     file Pt.pbe-n-kjpaw_psl.1.0.0.UPF: wavefunction(s)  6S 5D renormalized
     file C.pbe-n-kjpaw_psl.1.0.0.UPF: wavefunction(s)  2S 2P renormalized
     file H.pbe-kjpaw_psl.1.0.0.UPF: wavefunction(s)  1S renormalized

     IMPORTANT: XC functional enforced from input :
     Exchange-correlation= BEEF-VDW
                           (   1   4  43  14   2   0   0)
     Any further DFT definition will be discarded
     Please, verify this is what you really want

     Subspace diagonalization in iterative solution of the eigenvalue problem:
     a serial algorithm will be used

     bravais-lattice index     =            0
     lattice parameter (alat)  =      16.0349  a.u.
     unit-cell volume          =   11348.3981 (a.u.)^3
     number of atoms/cell      =           41
     number of atomic types    =            3
     number of electrons       =       374.00
     number of Kohn-Sham states=          224
     kinetic-energy cutoff     =      60.0000  Ry
     charge density cutoff     =     240.0000  Ry
     scf convergence threshold =      1.0E-06
     mixing beta               =       0.7000
     number of iterations used =            8  local-TF  mixing
     Exchange-correlation= BEEF-VDW
                           (   1   4  43  14   2   0   0)

     celldm(1)=  16.034858  celldm(2)=   0.000000  celldm(3)=   0.000000
     celldm(4)=   0.000000  celldm(5)=   0.000000  celldm(6)=   0.000000

     crystal axes: (cart. coord. in units of alat)
               a(1) = (   1.000000   0.000000   0.000000 )
               a(2) = (   0.500000   0.866025   0.000000 )
               a(3) = (   0.000000   0.000000   3.178400 )

     reciprocal axes: (cart. coord. in units 2 pi/alat)
               b(1) = (  1.000000 -0.577350  0.000000 )
               b(2) = (  0.000000  1.154701  0.000000 )
               b(3) = (  0.000000  0.000000  0.314624 )

     PseudoPot. # 1 for Pt read from file:
     /users/bkreitz1/quantum-espresso/potentials/Pt.pbe-n-kjpaw_psl.1.0.0.UPF
     MD5 check sum: 04dc8a03c51ece93fc7b5889c2958091
     Pseudo is Projector augmented-wave + core cor, Zval = 10.0
     Generated using 'atomic' code by A. Dal Corso  v.6.7MaX
     Shape of augmentation charge: PSQ
     Using radial grid of 1277 points,  6 beta functions with:
                l(1) =   0
                l(2) =   0
                l(3) =   1
                l(4) =   1
                l(5) =   2
                l(6) =   2
     Q(r) pseudized with 0 coefficients

     PseudoPot. # 2 for C  read from file:
     /users/bkreitz1/quantum-espresso/potentials/C.pbe-n-kjpaw_psl.1.0.0.UPF
     MD5 check sum: a169b0ebad56f5ec0d79c4633f80bf22
     Pseudo is Projector augmented-wave + core cor, Zval =  4.0
     Generated using 'atomic' code by A. Dal Corso  v.6.7MaX
     Shape of augmentation charge: PSQ
     Using radial grid of 1073 points,  4 beta functions with:
                l(1) =   0
                l(2) =   0
                l(3) =   1
                l(4) =   1
     Q(r) pseudized with 0 coefficients

     PseudoPot. # 3 for H  read from file:
     /users/bkreitz1/quantum-espresso/potentials/H.pbe-kjpaw_psl.1.0.0.UPF
     MD5 check sum: ae98473e6dc62675f0d0baffdab24f65
     Pseudo is Projector augmented-wave, Zval =  1.0
     Generated using 'atomic' code by A. Dal Corso  v.6.7MaX
     Shape of augmentation charge: PSQ
     Using radial grid of  929 points,  2 beta functions with:
                l(1) =   0
                l(2) =   0
     Q(r) pseudized with 0 coefficients

     atomic species   valence    mass     pseudopotential
        Pt            10.00   195.08400     Pt( 1.00)
        C              4.00    12.01100     C ( 1.00)
        H              1.00     1.00800     H ( 1.00)

     No symmetry found

   Cartesian axes

     site n.     atom                  positions (alat units)
         1           Pt  tau(   1) = (   0.0000000   0.0000000   1.0017346  )
         2           Pt  tau(   2) = (   0.3333333   0.0000000   1.0017346  )
         3           Pt  tau(   3) = (   0.6666667   0.0000000   1.0017346  )
         4           Pt  tau(   4) = (   0.1666667   0.2886751   1.0017346  )
         5           Pt  tau(   5) = (   0.5000000   0.2886751   1.0017346  )
         6           Pt  tau(   6) = (   0.8333333   0.2886751   1.0017346  )
         7           Pt  tau(   7) = (   0.3333333   0.5773503   1.0017346  )
         8           Pt  tau(   8) = (   0.6666667   0.5773503   1.0017346  )
         9           Pt  tau(   9) = (   1.0000000   0.5773503   1.0017346  )
        10           Pt  tau(  10) = (   0.1666667   0.0962250   1.2739001  )
        11           Pt  tau(  11) = (   0.5000000   0.0962250   1.2739001  )
        12           Pt  tau(  12) = (   0.8333333   0.0962250   1.2739001  )
        13           Pt  tau(  13) = (   0.3333333   0.3849002   1.2739001  )
        14           Pt  tau(  14) = (   0.6666667   0.3849002   1.2739001  )
        15           Pt  tau(  15) = (   1.0000000   0.3849002   1.2739001  )
        16           Pt  tau(  16) = (   0.5000000   0.6735753   1.2739001  )
        17           Pt  tau(  17) = (   0.8333333   0.6735753   1.2739001  )
        18           Pt  tau(  18) = (   1.1666667   0.6735753   1.2739001  )
        19           Pt  tau(  19) = (   0.0005202   0.1911877   1.5485166  )
        20           Pt  tau(  20) = (   0.3406988   0.1930673   1.5479089  )
        21           Pt  tau(  21) = (   0.6690525   0.1896039   1.5464776  )
        22           Pt  tau(  22) = (   0.1663837   0.4793875   1.5477929  )
        23           Pt  tau(  23) = (   0.5020443   0.4781270   1.5457884  )
        24           Pt  tau(  24) = (   0.8365203   0.4777166   1.5451837  )
        25           Pt  tau(  25) = (   0.3366327   0.7658931   1.5413137  )
        26           Pt  tau(  26) = (   0.6704611   0.7692555   1.5395465  )
        27           Pt  tau(  27) = (   1.0023839   0.7643694   1.5445889  )
        28           Pt  tau(  28) = (   0.0095443  -0.0119546   1.8163043  )
        29           Pt  tau(  29) = (   0.3400907  -0.0028485   1.8159680  )
        30           Pt  tau(  30) = (   0.6715578  -0.0150341   1.8133276  )
        31           Pt  tau(  31) = (   0.1793941   0.2801270   1.8197660  )
        32           Pt  tau(  32) = (   0.5070016   0.2834117   1.8434876  )
        33           Pt  tau(  33) = (   0.8501378   0.2642154   1.8311558  )
        34           Pt  tau(  34) = (   0.3361505   0.5701373   1.8198172  )
        35           Pt  tau(  35) = (   0.6670537   0.5775235   1.8139327  )
        36           Pt  tau(  36) = (   1.0096129   0.5713284   1.8465200  )
        37           C   tau(  37) = (   0.6483008   0.2708514   2.0324539  )
        38           C   tau(  38) = (   0.7772735   0.3690003   2.0714750  )
        39           C   tau(  39) = (   0.8239557   0.4818508   1.9538091  )
        40           H   tau(  40) = (   0.6220953   0.1754639   2.1142996  )
        41           H   tau(  41) = (   0.8461029   0.3490631   2.1789167  )

     number of k points=    13  Marzari-Vanderbilt smearing, width (Ry)=  0.0200
                       cart. coord. in units 2pi/alat
        k(    1) = (   0.0000000   0.0000000   0.0000000), wk =   0.0800000
        k(    2) = (   0.0000000   0.2309401   0.0000000), wk =   0.1600000
        k(    3) = (   0.0000000   0.4618802   0.0000000), wk =   0.1600000
        k(    4) = (   0.2000000  -0.1154701   0.0000000), wk =   0.1600000
        k(    5) = (   0.2000000   0.1154701   0.0000000), wk =   0.1600000
        k(    6) = (   0.2000000   0.3464102   0.0000000), wk =   0.1600000
        k(    7) = (   0.2000000  -0.5773503   0.0000000), wk =   0.1600000
        k(    8) = (   0.2000000  -0.3464102   0.0000000), wk =   0.1600000
        k(    9) = (   0.4000000  -0.2309401   0.0000000), wk =   0.1600000
        k(   10) = (   0.4000000  -0.0000000   0.0000000), wk =   0.1600000
        k(   11) = (   0.4000000   0.2309401   0.0000000), wk =   0.1600000
        k(   12) = (   0.4000000  -0.6928203   0.0000000), wk =   0.1600000
        k(   13) = (   0.4000000  -0.4618802   0.0000000), wk =   0.1600000

     Check: negative core charge=   -0.000002

     Initial potential from superposition of free atoms

     starting charge  373.99375, renormalised to  374.00000

     negative rho (up, down):  1.199E-02 0.000E+00

     %%%%%%%%%%%%%%%%%%%%%%%%%%%%%%%%%%%%%%%%%%%%%%%%%%%%%%%%%%%%%%%%%%%%%%%%
     %                                                                      %
     % You are using vdW-DF, which was implemented by the Thonhauser group. %
     % Please cite the following two papers that made this development      %
     % possible and the two reviews that describe the various versions:     %
     %                                                                      %
     %   T. Thonhauser et al., PRL 115, 136402 (2015).                      %
     %   T. Thonhauser et al., PRB 76, 125112 (2007).                       %
     %   K. Berland et al., Rep. Prog. Phys. 78, 066501 (2015).             %
     %   D.C. Langreth et al., J. Phys.: Condens. Matter 21, 084203 (2009). %
     %                                                                      %
     %                                                                      %
     % If you are calculating the stress with vdW-DF, please also cite:     %
     %                                                                      %
     %   R. Sabatini et al., J. Phys.: Condens. Matter 24, 424209 (2012).   %
     %                                                                      %
     %%%%%%%%%%%%%%%%%%%%%%%%%%%%%%%%%%%%%%%%%%%%%%%%%%%%%%%%%%%%%%%%%%%%%%%%

     Starting wfcs are  338 randomized atomic wfcs
     Checking if some PAW data can be deallocated...

     Self-consistent Calculation

     iteration #  1     ecut=    60.00 Ry     beta= 0.70
     Davidson diagonalization with overlap
     ethr =  1.00E-02,  avg # of iterations =  2.0

     Threshold (ethr) on eigenvalues was too large:
     Diagonalizing with lowered threshold

     Davidson diagonalization with overlap
     ethr =  8.06E-04,  avg # of iterations =  2.8

[...]

     total energy              =  -27813.20341974 Ry
     estimated scf accuracy    <       3.31718256 Ry

[...]

     iteration #  5     ecut=    60.00 Ry     beta= 0.70
     Davidson diagonalization with overlap
     c_bands:  1 eigenvalues not converged
     c_bands:  1 eigenvalues not converged
     ethr =  2.92E-05,  avg # of iterations = 17.6

[...]

     iteration # 10     ecut=    60.00 Ry     beta= 0.70
     Davidson diagonalization with overlap
     c_bands:  2 eigenvalues not converged
     c_bands:  2 eigenvalues not converged
     c_bands:  2 eigenvalues not converged
     c_bands:  1 eigenvalues not converged
     ethr =  5.58E-07,  avg # of iterations = 10.3

[...]

     total energy              =  -27813.61415190 Ry
     estimated scf accuracy    <       0.00000415 Ry

     iteration # 19     ecut=    60.00 Ry     beta= 0.70
     Davidson diagonalization with overlap
     ethr =  1.11E-09,  avg # of iterations =  1.5

[...]

     End of self-consistent calculation

          k = 0.0000 0.0000 0.0000 ( 89069 PWs)   bands (ev):

   -14.4276 -10.6753  -7.8369  -6.6393  -6.1516  -5.3605  -4.8978  -4.6791
    -4.3775  -4.3218  -4.2943  -4.2776  -4.2761  -4.2334  -4.1749  -4.0823
    -3.8825  -3.7596  -3.7307  -3.7182  -3.6671  -3.5933  -3.5368  -3.4160
    -3.3500  -3.2889  -3.1847  -3.1487  -3.1272  -3.1049  -3.0656  -3.0483
    -3.0331  -2.9666  -2.9596  -2.9223  -2.9160  -2.8847  -2.8722  -2.8149
    -2.7854  -2.7785  -2.7599  -2.7396  -2.6642  -2.5370  -2.4762  -2.4172
    -2.3446  -2.2827  -2.2224  -2.2085  -2.1942  -2.1776  -2.1471  -2.0938
    -2.0797  -1.9919  -1.9529  -1.9450  -1.8755  -1.7240  -1.6856  -1.5594
    -1.4960  -1.4687  -1.4464  -1.4300  -1.4039  -1.3541  -1.3423  -1.2666
    -1.2456  -1.2286  -1.2103  -1.1980  -1.1840  -1.1677  -1.1451  -1.1326
    -1.1166  -1.1091  -1.0997  -1.0792  -1.0643  -1.0435  -1.0332  -1.0243
    -0.9955  -0.9791  -0.9342  -0.8666  -0.8251  -0.7678  -0.7648  -0.7423
    -0.7180  -0.6969  -0.6943  -0.6669  -0.6535  -0.6499  -0.6198  -0.5739
    -0.5571  -0.5471  -0.5188  -0.5158  -0.5016  -0.4749  -0.4117  -0.3926
    -0.3515  -0.2964  -0.2433  -0.1605  -0.0748  -0.0266   0.0322   0.0827
     0.1193   0.1322   0.1433   0.1992   0.2500   0.2789   0.3009   0.3080
     0.3410   0.3497   0.3641   0.3773   0.3938   0.4228   0.4947   0.5740
     0.6193   0.6334   0.6528   0.7053   0.7291   0.7909   0.8050   0.8214
     0.8578   0.8850   0.9124   0.9334   0.9474   1.0055   1.0297   1.0619
     1.0964   1.1346   1.1550   1.1776   1.1929   1.2136   1.2757   1.2814
     1.2945   1.3063   1.3262   1.3301   1.3392   1.3506   1.3567   1.3650
     1.3828   1.3944   1.4288   1.4596   1.4935   1.5143   1.5412   1.5490
     1.5590   1.5745   1.6104   1.6343   1.6546   1.6633   1.6800   1.6822
     1.6946   1.7331   1.7424   1.7541   1.7776   1.7925   1.8329   1.8472
     1.8726   1.9657   2.0238   2.0561   2.0808   2.1071   2.1090   2.1364
     2.1519   2.3790   2.5981   2.6992   2.8514   2.9672   2.9995   3.2889
     3.7580   3.8709   4.5240   4.8931   5.2659   5.2933   5.4783   5.5387
     5.9871   6.0747   6.3112   6.7335   6.8463   6.9140   6.9661   6.9905

[...]

          k = 0.4000-0.4619 0.0000 ( 89042 PWs)   bands (ev):

   -14.4266 -10.6748  -7.7845  -6.1475  -5.7730  -5.6726  -5.1527  -4.8307
    -4.7254  -4.4420  -4.2123  -3.9731  -3.8825  -3.8217  -3.8107  -3.7246
    -3.6755  -3.6343  -3.5809  -3.5466  -3.4898  -3.4529  -3.4427  -3.4307
    -3.4111  -3.3696  -3.3170  -3.2759  -3.2403  -3.2216  -3.1975  -3.1513
    -3.1073  -3.0670  -3.0242  -2.9741  -2.8931  -2.8672  -2.8281  -2.7984
    -2.7730  -2.7399  -2.6496  -2.6072  -2.5733  -2.5115  -2.4414  -2.3985
    -2.3734  -2.3310  -2.2784  -2.2373  -2.1751  -2.1346  -2.1059  -2.0686
    -2.0549  -1.9955  -1.9858  -1.9529  -1.9257  -1.8795  -1.8569  -1.8487
    -1.7899  -1.7716  -1.7492  -1.7271  -1.6987  -1.6612  -1.6348  -1.5736
    -1.5280  -1.5061  -1.4690  -1.4390  -1.3897  -1.3672  -1.3492  -1.3074
    -1.2911  -1.2513  -1.2214  -1.1720  -1.1528  -1.1260  -1.0953  -1.0685
    -1.0417  -0.9775  -0.9664  -0.9537  -0.9269  -0.9105  -0.8797  -0.7926
    -0.7787  -0.7551  -0.7249  -0.7046  -0.6765  -0.6490  -0.6334  -0.6167
    -0.6037  -0.5971  -0.5689  -0.5278  -0.5089  -0.4845  -0.4722  -0.4636
    -0.4545  -0.4214  -0.3806  -0.3504  -0.2941  -0.2515  -0.2023  -0.1321
    -0.0687  -0.0310  -0.0241  -0.0015   0.0271   0.0406   0.0739   0.1240
     0.1594   0.1714   0.2122   0.2297   0.2632   0.3018   0.3284   0.3711
     0.4018   0.4456   0.4864   0.5246   0.5941   0.6079   0.6739   0.7095
     0.7396   0.7469   0.7661   0.8023   0.8190   0.8675   0.8880   0.9207
     0.9434   0.9551   0.9920   1.0306   1.0537   1.0969   1.1286   1.2124
     1.2389   1.2956   1.3517   1.4060   1.4405   1.4895   1.5302   1.5629
     1.6140   1.6553   1.6899   1.7388   1.7677   1.7903   1.8300   1.8367
     1.8549   1.8997   1.9436   1.9520   1.9764   1.9914   2.0078   2.0456
     2.0727   2.1162   2.1609   2.1777   2.2301   2.2492   2.2737   2.2875
     2.3272   2.3575   2.4031   2.5433   2.8787   3.0085   3.1160   3.3398
     3.4852   3.5404   3.7173   3.7737   3.8475   4.0053   4.0691   4.2464
     4.4569   4.5558   4.5903   4.9032   4.9779   5.0718   5.1014   5.2990
     5.3532   5.4911   5.5432   5.7499   5.8696   6.0932   6.3422   6.4827

     the Fermi energy is     2.0776 ev

!    total energy              =  -27813.61415183 Ry

     total all-electron energy =  -1326873.671855 Ry
     estimated scf accuracy    <       0.00000088 Ry
     smearing contrib. (-TS)   =       0.00348579 Ry
     internal energy E=F+TS    =  -27813.61763761 Ry

     The total energy is F=E-TS. E is the sum of the following terms:
     one-electron contribution =  -27236.82592303 Ry
     hartree contribution      =   13923.77497182 Ry
     xc contribution           =    -905.93268073 Ry
     ewald contribution        =   11899.04028679 Ry
     one-center paw contrib.   =  -25493.67429246 Ry

     convergence has been achieved in  19 iterations

[...]

     Forces acting on atoms (cartesian axes, Ry/au):

     atom    1 type  1   force =    -0.00289904    0.00033519   -0.00605025
     atom    2 type  1   force =     0.00113250   -0.00055852   -0.00624422
     atom    3 type  1   force =    -0.00014367    0.00061347   -0.00524511
     atom    4 type  1   force =    -0.00092111    0.00058888   -0.00331037
     atom    5 type  1   force =     0.00057299   -0.00003757   -0.00439553
     atom    6 type  1   force =     0.00003751   -0.00006485   -0.00426369
     atom    7 type  1   force =    -0.00051123    0.00056915   -0.00385730
     atom    8 type  1   force =    -0.00025818    0.00150056   -0.00375851
     atom    9 type  1   force =    -0.00071389    0.00124525   -0.00439000
     atom   10 type  1   force =    -0.00071811    0.00625234    0.00227410
     atom   11 type  1   force =    -0.00280667    0.00167513    0.00460495
     atom   12 type  1   force =     0.00321996    0.00213764    0.00325059
     atom   13 type  1   force =     0.00019605   -0.00332384    0.00652812
     atom   14 type  1   force =    -0.00089534   -0.00167288    0.00676854
     atom   15 type  1   force =     0.00270878   -0.00261259    0.00926997
     atom   16 type  1   force =     0.00215748   -0.00114914   -0.00181596
     atom   17 type  1   force =     0.00210900    0.00032173    0.00206710
     atom   18 type  1   force =    -0.00012480   -0.00301109    0.00673943
     atom   19 type  1   force =     0.00008234    0.00033518    0.00026886
     atom   20 type  1   force =     0.00024239    0.00021392    0.00028097
     atom   21 type  1   force =    -0.00028103    0.00002840    0.00022640
     atom   22 type  1   force =    -0.00025848   -0.00009532    0.00035509
     atom   23 type  1   force =    -0.00004736   -0.00023773    0.00000315
     atom   24 type  1   force =    -0.00000384   -0.00031023   -0.00009309
     atom   25 type  1   force =     0.00012998   -0.00009278    0.00024112
     atom   26 type  1   force =     0.00018698   -0.00018504    0.00012311
     atom   27 type  1   force =    -0.00000471   -0.00011036    0.00009230
     atom   28 type  1   force =     0.00017151    0.00000966   -0.00019242
     atom   29 type  1   force =     0.00026146   -0.00037888    0.00006683
     atom   30 type  1   force =    -0.00015966   -0.00027757    0.00015229
     atom   31 type  1   force =     0.00011720    0.00016579    0.00003882
     atom   32 type  1   force =     0.00053487   -0.00014073    0.00055966
     atom   33 type  1   force =    -0.00030524    0.00054232    0.00048128
     atom   34 type  1   force =     0.00017346   -0.00045117    0.00027594
     atom   35 type  1   force =    -0.00024670    0.00000191   -0.00001568
     atom   36 type  1   force =     0.00020476    0.00020679   -0.00001690
     atom   37 type  2   force =    -0.00173960   -0.00004720   -0.00062227
     atom   38 type  2   force =     0.00338374   -0.00294676    0.00752906
     atom   39 type  2   force =    -0.00072378   -0.00139742    0.00091569
     atom   40 type  3   force =     0.00070247    0.00013013   -0.00024212
     atom   41 type  3   force =    -0.00456296    0.00222822   -0.00859992

     Total force =     0.013677     Total SCF correction =     0.001608
     SCF correction compared to forces is large: reduce conv_thr to get better values

[...]

     negative rho (up, down):  1.317E-02 0.000E+00

     negative rho (up, down):  1.317E-02 0.000E+00
 BEEFens 2000 ensemble energies
             -0.606184892847608E+02
             -0.361914188562463E+01
             -0.158365743245481E+02
              0.429001390591706E+02
             -0.220855930433571E+02
             -0.205220847794270E+02
             -0.351743476466868E+02
             -0.864188768900055E+02
             -0.464981273018651E+02
             -0.472633717824400E+02
             -0.368993797219642E+02
              0.224342376931976E+01
              0.407584104112905E+01
              0.763047783965197E+01
              0.266051584733196E+01
              0.474526813414425E+02
             -0.208781230928790E+02
             -0.230520522437474E+02
              0.192917379089831E+02
             -0.112283404783699E+03
              0.535863146072797E+02
             -0.289693070431277E+02
             -0.334449398473111E+01
             -0.113971055321478E+02
             -0.886405030794629E+01
             -0.466932072019335E+01
              0.882046862341336E+02
             -0.186550403985873E+02
             -0.901805367155350E+01
             -0.518072553303928E+02
              0.815389700569281E+02
             -0.187553668804504E+02
             -0.374842971242593E+02
              0.249304884781382E+02
             -0.283632462618505E+01
              0.163740824401788E+02
             -0.485863022225845E+01
              0.108127341170277E+02
              0.287702116648516E+02
             -0.103222105889158E+03
              0.557770058972097E+02
              0.142210804174601E+02
             -0.168302762779132E+01
             -0.361476756016161E+02
              0.123068944912159E+02
             -0.146257525936552E+02
              0.398088673342102E+02
              0.364591289968392E+02
             -0.308072218497706E+02
             -0.275034667994812E+02
             -0.328211437645934E+02
             -0.351664680536192E+02
              0.135738443860598E+02
             -0.490641232131492E+02
              0.115337901772699E+02
              0.622468325852423E+02
              0.634561127486671E+02
              0.355415173371488E+02
              0.154096776905187E+02
              0.269986474643691E+02
[...]
             -0.705443983810801E+02
             -0.935456158944248E+00
             -0.245508252926339E+01
             -0.882099895221927E+01
             -0.178101064999328E+01
             -0.652312833604358E+02
             -0.210919826915245E+02
              0.536506736490195E+01
              0.894784757858548E+01
              0.468342798390543E+02
             -0.397381596013834E+02
              0.657009570640008E+02
             -0.424917104948075E+02
              0.209938408152368E+02
              0.349968213553889E+02

 BEEF-vdW xc energy contributions
           1 :   -782.336642062117
           2 :    719.017289586747
           3 :   -609.169646272027
           4 :    479.535367378585
           5 :   -357.523853148727
           6 :    263.054125504120
           7 :   -203.934236618080
           8 :    175.753847806887
           9 :   -165.880685890046
          10 :    159.638958638079
          11 :   -146.129308908625
          12 :    121.495384488720
          13 :   -88.7895850120019
          14 :    55.0563028125464
          15 :   -27.3220282297225
          16 :    9.31791317026909
          17 :  -0.211124607166653
          18 :   -4.41365767380967
          19 :    10.0502787533280
          20 :   -20.5659082656798
          21 :    36.5339150419733
          22 :   -55.2620956422742
          23 :    72.3314422315418
          24 :   -83.8028542073907
          25 :    88.0066199524697
          26 :   -86.1335539574756
          27 :    81.4539168891283
          28 :   -77.6317510935980
          29 :    76.9830012429081
          30 :   -79.5037586660446
          31 :   -85.7972291589734
          32 :   -65.8321322796577

     Writing output data file ./pwscf.save/

     General routines

     Parallel routines

   This run was terminated on:  14: 9:41   4Jan2023

   JOB DONE.