     Program PWSCF v.6.7MaX starts on  4Jan2023 at 10:22:33

     Reading input from chchc-bi-ensemble.in
Warning: card &CELL ignored
Warning: card / ignored

     Current dimensions of program PWSCF are:
     Max number of different atomic species (ntypx) = 10
     Max number of k-points (npk) =  40000
     Max angular momentum in pseudopotentials (lmaxx) =  3
     file Pt.pbe-n-kjpaw_psl.1.0.0.UPF: wavefunction(s)  6S 5D renormalized
     file C.pbe-n-kjpaw_psl.1.0.0.UPF: wavefunction(s)  2S 2P renormalized
     file H.pbe-kjpaw_psl.1.0.0.UPF: wavefunction(s)  1S renormalized

     IMPORTANT: XC functional enforced from input :
     Exchange-correlation= BEEF-VDW
                           (   1   4  43  14   2   0   0)
     Any further DFT definition will be discarded
     Please, verify this is what you really want

     Subspace diagonalization in iterative solution of the eigenvalue problem:
     a serial algorithm will be used

     bravais-lattice index     =            0
     lattice parameter (alat)  =      16.0349  a.u.
     unit-cell volume          =   11539.0070 (a.u.)^3
     number of atoms/cell      =           41
     number of atomic types    =            3
     number of electrons       =       374.00
     number of Kohn-Sham states=          224
     kinetic-energy cutoff     =      60.0000  Ry
     charge density cutoff     =     240.0000  Ry
     scf convergence threshold =      1.0E-06
     mixing beta               =       0.7000
     number of iterations used =            8  local-TF  mixing
     Exchange-correlation= BEEF-VDW
                           (   1   4  43  14   2   0   0)

     celldm(1)=  16.034858  celldm(2)=   0.000000  celldm(3)=   0.000000
     celldm(4)=   0.000000  celldm(5)=   0.000000  celldm(6)=   0.000000

     crystal axes: (cart. coord. in units of alat)
               a(1) = (   1.000000   0.000000   0.000000 )
               a(2) = (   0.500000   0.866025   0.000000 )
               a(3) = (   0.000000   0.000000   3.231785 )

     reciprocal axes: (cart. coord. in units 2 pi/alat)
               b(1) = (  1.000000 -0.577350  0.000000 )
               b(2) = (  0.000000  1.154701  0.000000 )
               b(3) = (  0.000000  0.000000  0.309427 )

     PseudoPot. # 1 for Pt read from file:
     /users/bkreitz1/quantum-espresso/potentials/Pt.pbe-n-kjpaw_psl.1.0.0.UPF
     MD5 check sum: 04dc8a03c51ece93fc7b5889c2958091
     Pseudo is Projector augmented-wave + core cor, Zval = 10.0
     Generated using 'atomic' code by A. Dal Corso  v.6.7MaX
     Shape of augmentation charge: PSQ
     Using radial grid of 1277 points,  6 beta functions with:
                l(1) =   0
                l(2) =   0
                l(3) =   1
                l(4) =   1
                l(5) =   2
                l(6) =   2
     Q(r) pseudized with 0 coefficients

     PseudoPot. # 2 for C  read from file:
     /users/bkreitz1/quantum-espresso/potentials/C.pbe-n-kjpaw_psl.1.0.0.UPF
     MD5 check sum: a169b0ebad56f5ec0d79c4633f80bf22
     Pseudo is Projector augmented-wave + core cor, Zval =  4.0
     Generated using 'atomic' code by A. Dal Corso  v.6.7MaX
     Shape of augmentation charge: PSQ
     Using radial grid of 1073 points,  4 beta functions with:
                l(1) =   0
                l(2) =   0
                l(3) =   1
                l(4) =   1
     Q(r) pseudized with 0 coefficients

     PseudoPot. # 3 for H  read from file:
     /users/bkreitz1/quantum-espresso/potentials/H.pbe-kjpaw_psl.1.0.0.UPF
     MD5 check sum: ae98473e6dc62675f0d0baffdab24f65
     Pseudo is Projector augmented-wave, Zval =  1.0
     Generated using 'atomic' code by A. Dal Corso  v.6.7MaX
     Shape of augmentation charge: PSQ
     Using radial grid of  929 points,  2 beta functions with:
                l(1) =   0
                l(2) =   0
     Q(r) pseudized with 0 coefficients

     atomic species   valence    mass     pseudopotential
        Pt            10.00   195.08400     Pt( 1.00)
        C              4.00    12.01100     C ( 1.00)
        H              1.00     1.00800     H ( 1.00)

     No symmetry found

   Cartesian axes

     site n.     atom                  positions (alat units)
         1           Pt  tau(   1) = (   0.0000000   0.0000000   1.0017346  )
         2           Pt  tau(   2) = (   0.3333333   0.0000000   1.0017346  )
         3           Pt  tau(   3) = (   0.6666667   0.0000000   1.0017346  )
         4           Pt  tau(   4) = (   0.1666667   0.2886751   1.0017346  )
         5           Pt  tau(   5) = (   0.5000000   0.2886751   1.0017346  )
         6           Pt  tau(   6) = (   0.8333333   0.2886751   1.0017346  )
         7           Pt  tau(   7) = (   0.3333333   0.5773503   1.0017346  )
         8           Pt  tau(   8) = (   0.6666667   0.5773503   1.0017346  )
         9           Pt  tau(   9) = (   1.0000000   0.5773503   1.0017346  )
        10           Pt  tau(  10) = (   0.1666667   0.0962250   1.2739001  )
        11           Pt  tau(  11) = (   0.5000000   0.0962250   1.2739001  )
        12           Pt  tau(  12) = (   0.8333333   0.0962250   1.2739001  )
        13           Pt  tau(  13) = (   0.3333333   0.3849002   1.2739001  )
        14           Pt  tau(  14) = (   0.6666667   0.3849002   1.2739001  )
        15           Pt  tau(  15) = (   1.0000000   0.3849002   1.2739001  )
        16           Pt  tau(  16) = (   0.5000000   0.6735753   1.2739001  )
        17           Pt  tau(  17) = (   0.8333333   0.6735753   1.2739001  )
        18           Pt  tau(  18) = (   1.1666667   0.6735753   1.2739001  )
        19           Pt  tau(  19) = (  -0.0043239   0.1916128   1.5441730  )
        20           Pt  tau(  20) = (   0.3338981   0.1920140   1.5461049  )
        21           Pt  tau(  21) = (   0.6641437   0.1926949   1.5496061  )
        22           Pt  tau(  22) = (   0.1656702   0.4793760   1.5419649  )
        23           Pt  tau(  23) = (   0.4997157   0.4777571   1.5493822  )
        24           Pt  tau(  24) = (   0.8313334   0.4793543   1.5455385  )
        25           Pt  tau(  25) = (   0.3315425   0.7680057   1.5416065  )
        26           Pt  tau(  26) = (   0.6644074   0.7656972   1.5442193  )
        27           Pt  tau(  27) = (   0.9986299   0.7686757   1.5419005  )
        28           Pt  tau(  28) = (  -0.0033804  -0.0027812   1.8170060  )
        29           Pt  tau(  29) = (   0.3282120  -0.0051660   1.8153092  )
        30           Pt  tau(  30) = (   0.6646049  -0.0049031   1.8155462  )
        31           Pt  tau(  31) = (   0.1602688   0.2850594   1.8154164  )
        32           Pt  tau(  32) = (   0.4838007   0.2785940   1.8456164  )
        33           Pt  tau(  33) = (   0.8379898   0.2842611   1.8323912  )
        34           Pt  tau(  34) = (   0.3291295   0.5763359   1.8155188  )
        35           Pt  tau(  35) = (   0.6660086   0.5828359   1.8321533  )
        36           Pt  tau(  36) = (   1.0019372   0.5773298   1.8163854  )
        37           C   tau(  37) = (   0.4841683   0.2796682   2.0846793  )
        38           C   tau(  38) = (   0.6185284   0.3567849   2.1201025  )
        39           C   tau(  39) = (   0.6800619   0.3921746   1.9640250  )
        40           H   tau(  40) = (   0.3950782   0.2281586   2.1601498  )
        41           H   tau(  41) = (   0.6716077   0.3867770   2.2337593  )

     number of k points=    13  Marzari-Vanderbilt smearing, width (Ry)=  0.0200
                       cart. coord. in units 2pi/alat
        k(    1) = (   0.0000000   0.0000000   0.0000000), wk =   0.0800000
        k(    2) = (   0.0000000   0.2309401   0.0000000), wk =   0.1600000
        k(    3) = (   0.0000000   0.4618802   0.0000000), wk =   0.1600000
        k(    4) = (   0.2000000  -0.1154701   0.0000000), wk =   0.1600000
        k(    5) = (   0.2000000   0.1154701   0.0000000), wk =   0.1600000
        k(    6) = (   0.2000000   0.3464102   0.0000000), wk =   0.1600000
        k(    7) = (   0.2000000  -0.5773503   0.0000000), wk =   0.1600000
        k(    8) = (   0.2000000  -0.3464102   0.0000000), wk =   0.1600000
        k(    9) = (   0.4000000  -0.2309401   0.0000000), wk =   0.1600000
        k(   10) = (   0.4000000  -0.0000000   0.0000000), wk =   0.1600000
        k(   11) = (   0.4000000   0.2309401   0.0000000), wk =   0.1600000
        k(   12) = (   0.4000000  -0.6928203   0.0000000), wk =   0.1600000
        k(   13) = (   0.4000000  -0.4618802   0.0000000), wk =   0.1600000

     Check: negative core charge=   -0.000002

     Initial potential from superposition of free atoms

     starting charge  373.99375, renormalised to  374.00000

     negative rho (up, down):  1.158E-02 0.000E+00

     %%%%%%%%%%%%%%%%%%%%%%%%%%%%%%%%%%%%%%%%%%%%%%%%%%%%%%%%%%%%%%%%%%%%%%%%
     %                                                                      %
     % You are using vdW-DF, which was implemented by the Thonhauser group. %
     % Please cite the following two papers that made this development      %
     % possible and the two reviews that describe the various versions:     %
     %                                                                      %
     %   T. Thonhauser et al., PRL 115, 136402 (2015).                      %
     %   T. Thonhauser et al., PRB 76, 125112 (2007).                       %
     %   K. Berland et al., Rep. Prog. Phys. 78, 066501 (2015).             %
     %   D.C. Langreth et al., J. Phys.: Condens. Matter 21, 084203 (2009). %
     %                                                                      %
     %                                                                      %
     % If you are calculating the stress with vdW-DF, please also cite:     %
     %                                                                      %
     %   R. Sabatini et al., J. Phys.: Condens. Matter 24, 424209 (2012).   %
     %                                                                      %
     %%%%%%%%%%%%%%%%%%%%%%%%%%%%%%%%%%%%%%%%%%%%%%%%%%%%%%%%%%%%%%%%%%%%%%%%

     Starting wfcs are  338 randomized atomic wfcs
     Checking if some PAW data can be deallocated...

     Self-consistent Calculation

     iteration #  1     ecut=    60.00 Ry     beta= 0.70
     Davidson diagonalization with overlap
     ethr =  1.00E-02,  avg # of iterations =  2.0

     Threshold (ethr) on eigenvalues was too large:
     Diagonalizing with lowered threshold

     Davidson diagonalization with overlap
     ethr =  9.92E-04,  avg # of iterations =  2.2

[...]

     total energy              =  -27813.12515720 Ry
     estimated scf accuracy    <       3.98555016 Ry

[...]

     iteration #  5     ecut=    60.00 Ry     beta= 0.70
     Davidson diagonalization with overlap
     c_bands:  1 eigenvalues not converged
     c_bands:  2 eigenvalues not converged
     c_bands:  3 eigenvalues not converged
     ethr =  3.90E-05,  avg # of iterations = 17.1

[...]

     iteration # 12     ecut=    60.00 Ry     beta= 0.70
     Davidson diagonalization with overlap
     c_bands:  1 eigenvalues not converged
     ethr =  2.79E-07,  avg # of iterations =  6.0

[...]

     total energy              =  -27813.60401662 Ry
     estimated scf accuracy    <       0.00000106 Ry

     iteration # 21     ecut=    60.00 Ry     beta= 0.70
     Davidson diagonalization with overlap
     ethr =  2.84E-10,  avg # of iterations =  1.1

[...]

     End of self-consistent calculation

          k = 0.0000 0.0000 0.0000 ( 90595 PWs)   bands (ev):

   -14.2824  -9.9721  -7.6465  -6.8046  -6.1235  -5.4973  -4.6549  -4.5800
    -4.4676  -4.4616  -4.4377  -4.4250  -4.4118  -4.3928  -4.2548  -4.1918
    -3.9831  -3.9134  -3.9017  -3.8950  -3.8217  -3.7932  -3.6990  -3.4630
    -3.4601  -3.4291  -3.3260  -3.2841  -3.2685  -3.2559  -3.2333  -3.2099
    -3.1719  -3.1278  -3.1008  -3.0467  -3.0391  -2.9948  -2.9740  -2.9433
    -2.9393  -2.9256  -2.9205  -2.9036  -2.8023  -2.7341  -2.5216  -2.4552
    -2.3944  -2.3930  -2.3740  -2.3624  -2.3447  -2.3007  -2.2993  -2.2370
    -2.1768  -2.1177  -2.1022  -2.0507  -1.9954  -1.7473  -1.7414  -1.6535
    -1.5920  -1.5690  -1.5562  -1.5058  -1.4890  -1.4484  -1.4361  -1.3799
    -1.3740  -1.3598  -1.3558  -1.3501  -1.3347  -1.3165  -1.2890  -1.2784
    -1.2702  -1.2447  -1.2378  -1.2173  -1.2158  -1.1807  -1.1666  -1.1642
    -1.1385  -1.0829  -1.0081  -0.9887  -0.9810  -0.9507  -0.9321  -0.9108
    -0.8977  -0.8752  -0.8700  -0.8334  -0.8263  -0.7764  -0.7234  -0.7120
    -0.7080  -0.6739  -0.6711  -0.6405  -0.6328  -0.5620  -0.5279  -0.5266
    -0.5077  -0.4067  -0.3284  -0.2589  -0.1527  -0.1207  -0.0928  -0.0552
    -0.0441  -0.0294  -0.0127   0.0303   0.1164   0.1303   0.1486   0.1908
     0.2004   0.2102   0.2179   0.2359   0.3106   0.3222   0.3604   0.4290
     0.4635   0.4725   0.5009   0.5301   0.5458   0.6360   0.7076   0.7163
     0.7344   0.7669   0.7710   0.8347   0.8385   0.8571   0.8833   0.8935
     0.9473   0.9822   0.9846   1.0172   1.0796   1.0820   1.1446   1.1535
     1.1648   1.1660   1.1716   1.1740   1.1963   1.2002   1.2181   1.2466
     1.2585   1.2669   1.2831   1.2958   1.3543   1.3576   1.3841   1.3853
     1.3950   1.4329   1.4413   1.4756   1.4930   1.5249   1.5317   1.5355
     1.5377   1.5461   1.5793   1.6080   1.6148   1.6480   1.6523   1.6809
     1.6918   1.8005   1.8277   1.9191   1.9406   1.9453   1.9764   1.9819
     2.0008   2.1197   2.4897   2.5275   2.7290   2.8432   2.8627   2.8738
     3.5916   3.6604   4.5829   4.9413   5.1042   5.1651   5.1818   5.4242
     5.7947   6.0228   6.0400   6.7042   6.7719   6.7874   6.8126   6.8903

[...]

          k = 0.4000-0.4619 0.0000 ( 90620 PWs)   bands (ev):

   -14.2818  -9.9666  -7.5990  -6.1173  -5.9085  -5.8298  -5.2745  -4.8069
    -4.6195  -4.3828  -4.3011  -4.1235  -4.0951  -3.9740  -3.9107  -3.8376
    -3.8237  -3.7624  -3.7185  -3.6606  -3.6173  -3.6033  -3.5801  -3.5686
    -3.5387  -3.5067  -3.4602  -3.4169  -3.3856  -3.3731  -3.3497  -3.3031
    -3.2449  -3.1411  -3.1261  -3.0943  -3.0414  -3.0092  -2.9815  -2.9428
    -2.9028  -2.8644  -2.7807  -2.7658  -2.7030  -2.5814  -2.5627  -2.5374
    -2.4819  -2.4460  -2.4033  -2.3442  -2.2668  -2.2434  -2.2265  -2.1930
    -2.1766  -2.1108  -2.0775  -2.0653  -2.0433  -2.0045  -1.9953  -1.9681
    -1.9405  -1.9091  -1.8729  -1.8662  -1.8277  -1.7935  -1.7364  -1.7035
    -1.6749  -1.6323  -1.5665  -1.5389  -1.5225  -1.4804  -1.4584  -1.4463
    -1.4237  -1.3930  -1.3555  -1.3207  -1.2955  -1.2682  -1.2443  -1.2126
    -1.1507  -1.1293  -1.1056  -1.0875  -1.0657  -1.0309  -0.9752  -0.9460
    -0.9105  -0.8907  -0.8668  -0.8355  -0.8106  -0.7951  -0.7864  -0.7704
    -0.7482  -0.7389  -0.6856  -0.6744  -0.6617  -0.6317  -0.6222  -0.6107
    -0.5974  -0.5709  -0.5567  -0.4885  -0.4126  -0.3387  -0.3136  -0.2909
    -0.2270  -0.1756  -0.1495  -0.1194  -0.0865  -0.0716  -0.0432  -0.0236
     0.0028   0.0249   0.0559   0.0861   0.1096   0.1691   0.2157   0.2295
     0.2395   0.3111   0.3690   0.3850   0.4215   0.4619   0.5303   0.5677
     0.5854   0.6098   0.6445   0.6616   0.6698   0.7003   0.7300   0.7720
     0.7905   0.8283   0.8462   0.8777   0.9281   0.9380   0.9923   1.0341
     1.0927   1.1625   1.2213   1.2335   1.3240   1.3563   1.3647   1.4065
     1.4746   1.4999   1.5176   1.5517   1.6070   1.6161   1.6654   1.6904
     1.7094   1.7468   1.7644   1.8149   1.8291   1.8345   1.8641   1.8765
     1.9099   1.9253   1.9854   2.0209   2.0513   2.1047   2.1357   2.1555
     2.1943   2.2096   2.2556   2.3814   2.6367   2.9308   3.0677   3.2464
     3.3085   3.4384   3.5314   3.6200   3.7197   3.8299   4.0817   4.1805
     4.3499   4.4173   4.4743   4.7286   4.8163   4.9066   5.0052   5.0964
     5.1957   5.2910   5.4077   5.6046   5.7197   5.9451   6.2461   6.3070

     the Fermi energy is     1.9221 ev

!    total energy              =  -27813.60401633 Ry

     total all-electron energy =  -1326873.661720 Ry
     estimated scf accuracy    <       0.00000046 Ry
     smearing contrib. (-TS)   =       0.00478698 Ry
     internal energy E=F+TS    =  -27813.60880331 Ry

     The total energy is F=E-TS. E is the sum of the following terms:
     one-electron contribution =  -28071.96606811 Ry
     hartree contribution      =   14339.52590978 Ry
     xc contribution           =    -905.86284948 Ry
     ewald contribution        =   12318.34954913 Ry
     one-center paw contrib.   =  -25493.65534462 Ry

     convergence has been achieved in  21 iterations

[...]

     Forces acting on atoms (cartesian axes, Ry/au):

     atom    1 type  1   force =     0.00003022    0.00006022   -0.00656172
     atom    2 type  1   force =     0.00084265   -0.00068285   -0.00442079
     atom    3 type  1   force =     0.00084735    0.00047212   -0.00415442
     atom    4 type  1   force =    -0.00023098    0.00121846   -0.00438646
     atom    5 type  1   force =     0.00025636    0.00024794   -0.00327749
     atom    6 type  1   force =     0.00102899   -0.00032193   -0.00360464
     atom    7 type  1   force =     0.00071919    0.00064194   -0.00417255
     atom    8 type  1   force =     0.00014206    0.00122681   -0.00363449
     atom    9 type  1   force =     0.00010197    0.00014467   -0.00394356
     atom   10 type  1   force =     0.00032292    0.00002738   -0.00597147
     atom   11 type  1   force =    -0.00122589    0.00233186    0.00733933
     atom   12 type  1   force =     0.00063379    0.00062186    0.00320191
     atom   13 type  1   force =     0.00158976   -0.00270565    0.00721677
     atom   14 type  1   force =    -0.00278190   -0.00201044    0.01460194
     atom   15 type  1   force =    -0.00063333   -0.00292310    0.00284205
     atom   16 type  1   force =     0.00117378   -0.00007903    0.00306387
     atom   17 type  1   force =    -0.00269272    0.00054074    0.00278165
     atom   18 type  1   force =    -0.00082511   -0.00084630    0.00051647
     atom   19 type  1   force =     0.00009207    0.00014528    0.00044540
     atom   20 type  1   force =    -0.00000095    0.00037427    0.00066200
     atom   21 type  1   force =    -0.00011177    0.00059726   -0.00000760
     atom   22 type  1   force =    -0.00022984   -0.00002702   -0.00024095
     atom   23 type  1   force =     0.00012790   -0.00007390    0.00009089
     atom   24 type  1   force =     0.00003347   -0.00002899    0.00001267
     atom   25 type  1   force =     0.00008240    0.00031331    0.00022397
     atom   26 type  1   force =    -0.00011298    0.00003005    0.00007529
     atom   27 type  1   force =    -0.00022926    0.00010425   -0.00013921
     atom   28 type  1   force =     0.00008161    0.00017276   -0.00008645
     atom   29 type  1   force =    -0.00027352   -0.00011375    0.00013094
     atom   30 type  1   force =     0.00036543    0.00025377    0.00023286
     atom   31 type  1   force =    -0.00044569    0.00014582   -0.00018376
     atom   32 type  1   force =    -0.00013758   -0.00001159   -0.00071078
     atom   33 type  1   force =     0.00056613   -0.00019031   -0.00003962
     atom   34 type  1   force =     0.00006448    0.00055348    0.00022111
     atom   35 type  1   force =     0.00016982   -0.00054351    0.00030033
     atom   36 type  1   force =    -0.00025056   -0.00000326    0.00040701
     atom   37 type  2   force =     0.00191705    0.00036537    0.00222811
     atom   38 type  2   force =     0.00373800    0.00216203    0.00940178
     atom   39 type  2   force =    -0.00025569   -0.00010323    0.00008871
     atom   40 type  3   force =    -0.00029269    0.00001857   -0.00020740
     atom   41 type  3   force =    -0.00419696   -0.00210536   -0.01034168

     Total force =     0.015784     Total SCF correction =     0.002367
     SCF correction compared to forces is large: reduce conv_thr to get better values

[...]

     negative rho (up, down):  1.305E-02 0.000E+00

     negative rho (up, down):  1.305E-02 0.000E+00
 BEEFens 2000 ensemble energies
             -0.606222707586215E+02
             -0.361612412130347E+01
             -0.158315084413731E+02
              0.429009960902614E+02
             -0.220887138480615E+02
             -0.205185996396895E+02
             -0.351827063711664E+02
             -0.864217864138026E+02
             -0.464884083457877E+02
             -0.472522009695482E+02
             -0.368982369927460E+02
              0.225208309913360E+01
              0.407371861676114E+01
              0.762466666801311E+01
              0.265920166253650E+01
              0.474529052254281E+02
             -0.208741954099162E+02
             -0.230351309990116E+02
              0.192904672106423E+02
             -0.112285882657393E+03
              0.535865844583898E+02
             -0.289649026449454E+02
             -0.334288108947516E+01
             -0.113974892073797E+02
             -0.885171719337222E+01
             -0.465998435619360E+01
              0.882046101744954E+02
             -0.186675573605887E+02
             -0.901040936961795E+01
             -0.518054240806408E+02
              0.815205032738434E+02
             -0.187419352038914E+02
             -0.374802019302789E+02
              0.249209562941093E+02
             -0.283757737379932E+01
              0.163814954432582E+02
             -0.485484048630110E+01
              0.108061203605129E+02
              0.287833984186186E+02
             -0.103209764720887E+03
              0.557826489433296E+02
              0.142212688471373E+02
             -0.169490392005326E+01
             -0.361387790589691E+02
              0.123077768816102E+02
             -0.146364442446717E+02
              0.398104594816235E+02
              0.364567299462668E+02
             -0.307995229372185E+02
             -0.275001824620788E+02
             -0.328185284103084E+02
             -0.351731093524524E+02
              0.135915736256771E+02
             -0.490573423425615E+02
              0.115381906165376E+02
              0.622495073565759E+02
              0.634645548215477E+02
              0.355439508169604E+02
              0.154063289821203E+02
              0.270096395650569E+02
[...]
             -0.705478562404076E+02
             -0.920887462081510E+00
             -0.245865981680987E+01
             -0.881924623753139E+01
             -0.178690940948104E+01
             -0.652293813266162E+02
             -0.210784569582717E+02
              0.537352798071574E+01
              0.895999396556928E+01
              0.468365193419148E+02
             -0.397378011438817E+02
              0.656897308205857E+02
             -0.424905714627356E+02
              0.210012940536575E+02
              0.349987191605655E+02

 BEEF-vdW xc energy contributions
           1 :   -782.252696771839
           2 :    718.845981656699
           3 :   -608.911209396220
           4 :    479.261177339273
           5 :   -357.310773252565
           6 :    262.941684467217
           7 :   -203.920585893379
           8 :    175.812914438308
           9 :   -165.980936974248
          10 :    159.754676362393
          11 :   -146.243938970340
          12 :    121.599352737770
          13 :   -88.8764989291338
          14 :    55.1217521449234
          15 :   -27.3655239022473
          16 :    9.34546155071826
          17 :  -0.234787849434497
          18 :   -4.37892707469803
          19 :    9.99232456990433
          20 :   -20.4794214599415
          21 :    36.4207432029045
          22 :   -55.1282155622783
          23 :    72.1812354993439
          24 :   -83.6339980451570
          25 :    87.8109710553451
          26 :   -85.9019561237003
          27 :    81.1831000560900
          28 :   -77.3375990884826
          29 :    76.7121143896883
          30 :   -79.3256288307225
          31 :   -85.7896684430591
          32 :   -65.8026410285944

     Writing output data file ./pwscf.save/

     General routines

     Parallel routines

   This run was terminated on:  14:39:53   4Jan2023

   JOB DONE.