     Program PWSCF v.6.7MaX starts on 20May2022 at 17:37:47

     Reading input from chch2ch3-ensemble.in
Warning: card &CELL ignored
Warning: card / ignored

     Current dimensions of program PWSCF are:
     Max number of different atomic species (ntypx) = 10
     Max number of k-points (npk) =  40000
     Max angular momentum in pseudopotentials (lmaxx) =  3
     file Pt.pbe-n-kjpaw_psl.1.0.0.UPF: wavefunction(s)  6S 5D renormalized
     file C.pbe-n-kjpaw_psl.1.0.0.UPF: wavefunction(s)  2S 2P renormalized
     file H.pbe-kjpaw_psl.1.0.0.UPF: wavefunction(s)  1S renormalized

     IMPORTANT: XC functional enforced from input :
     Exchange-correlation= BEEF-VDW
                           (   1   4  43  14   2   0   0)
     Any further DFT definition will be discarded
     Please, verify this is what you really want

     Subspace diagonalization in iterative solution of the eigenvalue problem:
     a serial algorithm will be used

     bravais-lattice index     =            0
     lattice parameter (alat)  =      16.0349  a.u.
     unit-cell volume          =   11829.6154 (a.u.)^3
     number of atoms/cell      =           45
     number of atomic types    =            3
     number of electrons       =       378.00
     number of Kohn-Sham states=          227
     kinetic-energy cutoff     =      60.0000  Ry
     charge density cutoff     =     240.0000  Ry
     scf convergence threshold =      1.0E-06
     mixing beta               =       0.7000
     number of iterations used =            8  local-TF  mixing
     Exchange-correlation= BEEF-VDW
                           (   1   4  43  14   2   0   0)

     celldm(1)=  16.034858  celldm(2)=   0.000000  celldm(3)=   0.000000
     celldm(4)=   0.000000  celldm(5)=   0.000000  celldm(6)=   0.000000

     crystal axes: (cart. coord. in units of alat)
               a(1) = (   1.000000   0.000000   0.000000 )
               a(2) = (   0.500000   0.866025   0.000000 )
               a(3) = (   0.000000   0.000000   3.313177 )

     reciprocal axes: (cart. coord. in units 2 pi/alat)
               b(1) = (  1.000000 -0.577350  0.000000 )
               b(2) = (  0.000000  1.154701  0.000000 )
               b(3) = (  0.000000  0.000000  0.301825 )

     PseudoPot. # 1 for Pt read from file:
     /users/bkreitz1/quantum-espresso/potentials/Pt.pbe-n-kjpaw_psl.1.0.0.UPF
     MD5 check sum: 04dc8a03c51ece93fc7b5889c2958091
     Pseudo is Projector augmented-wave + core cor, Zval = 10.0
     Generated using 'atomic' code by A. Dal Corso  v.6.7MaX
     Shape of augmentation charge: PSQ
     Using radial grid of 1277 points,  6 beta functions with:
                l(1) =   0
                l(2) =   0
                l(3) =   1
                l(4) =   1
                l(5) =   2
                l(6) =   2
     Q(r) pseudized with 0 coefficients

     PseudoPot. # 2 for C  read from file:
     /users/bkreitz1/quantum-espresso/potentials/C.pbe-n-kjpaw_psl.1.0.0.UPF
     MD5 check sum: a169b0ebad56f5ec0d79c4633f80bf22
     Pseudo is Projector augmented-wave + core cor, Zval =  4.0
     Generated using 'atomic' code by A. Dal Corso  v.6.7MaX
     Shape of augmentation charge: PSQ
     Using radial grid of 1073 points,  4 beta functions with:
                l(1) =   0
                l(2) =   0
                l(3) =   1
                l(4) =   1
     Q(r) pseudized with 0 coefficients

     PseudoPot. # 3 for H  read from file:
     /users/bkreitz1/quantum-espresso/potentials/H.pbe-kjpaw_psl.1.0.0.UPF
     MD5 check sum: ae98473e6dc62675f0d0baffdab24f65
     Pseudo is Projector augmented-wave, Zval =  1.0
     Generated using 'atomic' code by A. Dal Corso  v.6.7MaX
     Shape of augmentation charge: PSQ
     Using radial grid of  929 points,  2 beta functions with:
                l(1) =   0
                l(2) =   0
     Q(r) pseudized with 0 coefficients

     atomic species   valence    mass     pseudopotential
        Pt            10.00   195.08400     Pt( 1.00)
        C              4.00    12.01100     C ( 1.00)
        H              1.00     1.00800     H ( 1.00)

     No symmetry found

   Cartesian axes

     site n.     atom                  positions (alat units)
         1           Pt  tau(   1) = (   0.0000000   0.0000000   1.0017346  )
         2           Pt  tau(   2) = (   0.3333333   0.0000000   1.0017346  )
         3           Pt  tau(   3) = (   0.6666667   0.0000000   1.0017346  )
         4           Pt  tau(   4) = (   0.1666667   0.2886751   1.0017346  )
         5           Pt  tau(   5) = (   0.5000000   0.2886751   1.0017346  )
         6           Pt  tau(   6) = (   0.8333333   0.2886751   1.0017346  )
         7           Pt  tau(   7) = (   0.3333333   0.5773503   1.0017346  )
         8           Pt  tau(   8) = (   0.6666667   0.5773503   1.0017346  )
         9           Pt  tau(   9) = (   1.0000000   0.5773503   1.0017346  )
        10           Pt  tau(  10) = (   0.1666667   0.0962250   1.2739001  )
        11           Pt  tau(  11) = (   0.5000000   0.0962250   1.2739001  )
        12           Pt  tau(  12) = (   0.8333333   0.0962250   1.2739001  )
        13           Pt  tau(  13) = (   0.3333333   0.3849002   1.2739001  )
        14           Pt  tau(  14) = (   0.6666667   0.3849002   1.2739001  )
        15           Pt  tau(  15) = (   1.0000000   0.3849002   1.2739001  )
        16           Pt  tau(  16) = (   0.5000000   0.6735753   1.2739001  )
        17           Pt  tau(  17) = (   0.8333333   0.6735753   1.2739001  )
        18           Pt  tau(  18) = (   1.1666667   0.6735753   1.2739001  )
        19           Pt  tau(  19) = (  -0.0015771   0.1901972   1.5489766  )
        20           Pt  tau(  20) = (   0.3363202   0.1902116   1.5489924  )
        21           Pt  tau(  21) = (   0.6673706   0.1887789   1.5466243  )
        22           Pt  tau(  22) = (   0.1673092   0.4759811   1.5437674  )
        23           Pt  tau(  23) = (   0.5004305   0.4738993   1.5449938  )
        24           Pt  tau(  24) = (   0.8342586   0.4739179   1.5448694  )
        25           Pt  tau(  25) = (   0.3356477   0.7640140   1.5405113  )
        26           Pt  tau(  26) = (   0.6672635   0.7667961   1.5400391  )
        27           Pt  tau(  27) = (   0.9989235   0.7640371   1.5405403  )
        28           Pt  tau(  28) = (   0.0010635  -0.0094442   1.8165055  )
        29           Pt  tau(  29) = (   0.3345988  -0.0095022   1.8164881  )
        30           Pt  tau(  30) = (   0.6678793  -0.0206497   1.8076928  )
        31           Pt  tau(  31) = (   0.1679529   0.2776283   1.8212853  )
        32           Pt  tau(  32) = (   0.5049778   0.2773829   1.8434619  )
        33           Pt  tau(  33) = (   0.8308253   0.2771143   1.8431180  )
        34           Pt  tau(  34) = (   0.3351168   0.5645134   1.8181332  )
        35           Pt  tau(  35) = (   0.6679237   0.5727869   1.8099080  )
        36           Pt  tau(  36) = (   1.0007577   0.5645482   1.8180545  )
        37           C   tau(  37) = (   0.6681105   0.2503212   2.0238150  )
        38           C   tau(  38) = (   0.6706807   0.3384688   2.1787775  )
        39           C   tau(  39) = (   0.6685028   0.5178073   2.1876462  )
        40           H   tau(  40) = (   0.6675148   0.1243331   2.0545158  )
        41           H   tau(  41) = (   0.5700421   0.2912863   2.2455991  )
        42           H   tau(  42) = (   0.7757660   0.2938696   2.2403561  )
        43           H   tau(  43) = (   0.6715003   0.5547697   2.3111016  )
        44           H   tau(  44) = (   0.7709302   0.5695247   2.1290097  )
        45           H   tau(  45) = (   0.5615549   0.5665002   2.1359766  )

     number of k points=    13  Marzari-Vanderbilt smearing, width (Ry)=  0.0200
                       cart. coord. in units 2pi/alat
        k(    1) = (   0.0000000   0.0000000   0.0000000), wk =   0.0800000
        k(    2) = (   0.0000000   0.2309401   0.0000000), wk =   0.1600000
        k(    3) = (   0.0000000   0.4618802   0.0000000), wk =   0.1600000
        k(    4) = (   0.2000000  -0.1154701   0.0000000), wk =   0.1600000
        k(    5) = (   0.2000000   0.1154701   0.0000000), wk =   0.1600000
        k(    6) = (   0.2000000   0.3464102   0.0000000), wk =   0.1600000
        k(    7) = (   0.2000000  -0.5773503   0.0000000), wk =   0.1600000
        k(    8) = (   0.2000000  -0.3464102   0.0000000), wk =   0.1600000
        k(    9) = (   0.4000000  -0.2309401   0.0000000), wk =   0.1600000
        k(   10) = (   0.4000000  -0.0000000   0.0000000), wk =   0.1600000
        k(   11) = (   0.4000000   0.2309401   0.0000000), wk =   0.1600000
        k(   12) = (   0.4000000  -0.6928203   0.0000000), wk =   0.1600000
        k(   13) = (   0.4000000  -0.4618802   0.0000000), wk =   0.1600000

     Check: negative core charge=   -0.000002

     Initial potential from superposition of free atoms

     starting charge  377.99371, renormalised to  378.00000

     negative rho (up, down):  1.117E-02 0.000E+00

     %%%%%%%%%%%%%%%%%%%%%%%%%%%%%%%%%%%%%%%%%%%%%%%%%%%%%%%%%%%%%%%%%%%%%%%%
     %                                                                      %
     % You are using vdW-DF, which was implemented by the Thonhauser group. %
     % Please cite the following two papers that made this development      %
     % possible and the two reviews that describe the various versions:     %
     %                                                                      %
     %   T. Thonhauser et al., PRL 115, 136402 (2015).                      %
     %   T. Thonhauser et al., PRB 76, 125112 (2007).                       %
     %   K. Berland et al., Rep. Prog. Phys. 78, 066501 (2015).             %
     %   D.C. Langreth et al., J. Phys.: Condens. Matter 21, 084203 (2009). %
     %                                                                      %
     %                                                                      %
     % If you are calculating the stress with vdW-DF, please also cite:     %
     %                                                                      %
     %   R. Sabatini et al., J. Phys.: Condens. Matter 24, 424209 (2012).   %
     %                                                                      %
     %%%%%%%%%%%%%%%%%%%%%%%%%%%%%%%%%%%%%%%%%%%%%%%%%%%%%%%%%%%%%%%%%%%%%%%%

     Starting wfcs are  342 randomized atomic wfcs
     Checking if some PAW data can be deallocated...

     Self-consistent Calculation

     iteration #  1     ecut=    60.00 Ry     beta= 0.70
     Davidson diagonalization with overlap
     ethr =  1.00E-02,  avg # of iterations =  3.1

     Threshold (ethr) on eigenvalues was too large:
     Diagonalizing with lowered threshold

     Davidson diagonalization with overlap
     ethr =  8.22E-04,  avg # of iterations =  2.5

[...]

     total energy              =  -27818.37918568 Ry
     estimated scf accuracy    <       3.37170571 Ry

[...]

     iteration #  6     ecut=    60.00 Ry     beta= 0.70
     Davidson diagonalization with overlap
     c_bands:  1 eigenvalues not converged
     c_bands:  1 eigenvalues not converged
     c_bands:  3 eigenvalues not converged
     c_bands:  1 eigenvalues not converged
     c_bands:  1 eigenvalues not converged
     ethr =  1.49E-05,  avg # of iterations = 14.0

[...]

     iteration # 10     ecut=    60.00 Ry     beta= 0.70
     Davidson diagonalization with overlap
     c_bands:  1 eigenvalues not converged
     c_bands:  1 eigenvalues not converged
     c_bands:  1 eigenvalues not converged
     c_bands:  1 eigenvalues not converged
     c_bands:  1 eigenvalues not converged
     ethr =  1.06E-06,  avg # of iterations = 13.3

[...]

     total energy              =  -27818.60449093 Ry
     estimated scf accuracy    <       0.00000149 Ry

     iteration # 22     ecut=    60.00 Ry     beta= 0.70
     Davidson diagonalization with overlap
     ethr =  3.94E-10,  avg # of iterations =  1.7

[...]

     End of self-consistent calculation

          k = 0.0000 0.0000 0.0000 ( 92939 PWs)   bands (ev):

   -13.2830 -10.6892  -8.1196  -6.9791  -5.6999  -5.0231  -4.8093  -4.7076
    -4.6382  -4.6057  -4.5858  -4.5700  -4.5558  -4.5522  -4.5251  -4.2464
    -4.0489  -4.0399  -4.0367  -4.0115  -4.0093  -3.9578  -3.5967  -3.5753
    -3.5734  -3.5642  -3.5589  -3.4509  -3.3685  -3.3591  -3.3547  -3.3500
    -3.3354  -3.2397  -3.1582  -3.1526  -3.1424  -3.1406  -3.1355  -3.1110
    -3.0852  -3.0808  -3.0587  -3.0510  -3.0226  -2.8905  -2.6898  -2.6161
    -2.5168  -2.5136  -2.4965  -2.4869  -2.4691  -2.4427  -2.4322  -2.3911
    -2.3871  -2.3747  -2.2610  -2.2603  -2.1698  -2.1248  -2.0068  -1.7760
    -1.7674  -1.7079  -1.7014  -1.6902  -1.6364  -1.6165  -1.5679  -1.5249
    -1.5156  -1.5122  -1.4998  -1.4900  -1.4840  -1.4693  -1.4662  -1.4418
    -1.4309  -1.4249  -1.4145  -1.4102  -1.4014  -1.3701  -1.3239  -1.3038
    -1.2933  -1.2429  -1.2022  -1.1590  -1.1274  -1.0784  -1.0591  -1.0489
    -1.0319  -1.0243  -1.0010  -1.0003  -0.9551  -0.9374  -0.8942  -0.8568
    -0.8560  -0.8492  -0.8163  -0.8149  -0.7675  -0.7581  -0.6919  -0.6675
    -0.6618  -0.6036  -0.5456  -0.5199  -0.3732  -0.2472  -0.2450  -0.1911
    -0.1864  -0.1506  -0.1412  -0.1306  -0.1080  -0.0849  -0.0416   0.0036
     0.0265   0.0290   0.0621   0.1068   0.1082   0.1220   0.1662   0.2247
     0.2627   0.3133   0.3231   0.3426   0.3638   0.3892   0.5057   0.5533
     0.5569   0.5741   0.5827   0.5999   0.6301   0.6473   0.7052   0.8173
     0.8381   0.8408   0.8434   0.8703   0.9334   0.9437   0.9788   0.9862
     1.0088   1.0106   1.0207   1.0288   1.0335   1.0514   1.0576   1.0893
     1.1026   1.1119   1.1129   1.1572   1.1706   1.1882   1.2142   1.2414
     1.2471   1.2518   1.2679   1.2767   1.2953   1.3202   1.3358   1.3857
     1.3907   1.3941   1.4166   1.4257   1.4316   1.4648   1.4883   1.4988
     1.5136   1.5220   1.5557   1.5597   1.6847   1.7083   1.7872   1.8201
     1.8241   1.8518   1.8597   1.8703   2.2487   2.3062   2.6559   2.7036
     2.7257   2.7366   2.8429   3.6979   4.3894   4.9680   4.9838   5.0712
     5.1057   5.5586   5.6278   6.0911   6.4344   6.6134   6.6265   6.6504
     6.6622   6.6775   6.7945

[...]

          k = 0.4000-0.4619 0.0000 ( 92844 PWs)   bands (ev):

   -13.2827 -10.6889  -8.1025  -6.0394  -6.0185  -5.4309  -5.0139  -4.8860
    -4.7778  -4.7048  -4.3790  -4.2523  -4.1962  -4.1180  -4.0896  -3.9856
    -3.9617  -3.8744  -3.8597  -3.7781  -3.7631  -3.7529  -3.7237  -3.7102
    -3.6842  -3.6446  -3.5573  -3.5487  -3.5327  -3.4889  -3.4766  -3.4310
    -3.3578  -3.2866  -3.2396  -3.1861  -3.1764  -3.1339  -3.0979  -3.0883
    -3.0444  -2.9609  -2.9080  -2.9021  -2.7421  -2.7122  -2.6899  -2.6492
    -2.6229  -2.5723  -2.5246  -2.4888  -2.4391  -2.4053  -2.3748  -2.3368
    -2.3119  -2.2836  -2.2563  -2.2435  -2.2053  -2.1653  -2.1225  -2.1154
    -2.0878  -2.0731  -2.0506  -2.0286  -2.0010  -1.9744  -1.9288  -1.8811
    -1.8318  -1.8043  -1.7697  -1.6966  -1.6575  -1.6553  -1.6138  -1.5996
    -1.5635  -1.5360  -1.4939  -1.4829  -1.4589  -1.4364  -1.4008  -1.3852
    -1.3594  -1.3068  -1.2696  -1.2347  -1.2196  -1.2132  -1.1882  -1.1374
    -1.0746  -1.0413  -1.0262  -0.9981  -0.9770  -0.9561  -0.9458  -0.9184
    -0.8974  -0.8766  -0.8684  -0.8499  -0.8282  -0.8096  -0.7851  -0.7749
    -0.7641  -0.7539  -0.7301  -0.6936  -0.6302  -0.6093  -0.4911  -0.4481
    -0.3962  -0.3685  -0.3382  -0.2994  -0.2799  -0.2315  -0.2119  -0.1878
    -0.1685  -0.1650  -0.1098  -0.0863  -0.0443  -0.0316   0.0081   0.0303
     0.0702   0.1109   0.1453   0.2081   0.2675   0.3049   0.3623   0.3971
     0.4128   0.4299   0.4549   0.4851   0.5080   0.5371   0.5620   0.5801
     0.5895   0.6350   0.6852   0.6984   0.7403   0.7589   0.7769   0.8024
     0.8235   0.8795   0.9411   1.0002   1.0547   1.0760   1.1866   1.2130
     1.2348   1.2546   1.3054   1.3538   1.3903   1.4195   1.4854   1.5196
     1.5343   1.5519   1.5710   1.5877   1.6202   1.6351   1.7009   1.7274
     1.7323   1.7563   1.7778   1.7876   1.8064   1.8657   1.9216   1.9676
     1.9893   2.0030   2.0186   2.0637   2.0963   2.1869   2.3075   2.7845
     2.8697   3.1590   3.1743   3.4103   3.4566   3.5256   3.5431   3.7426
     3.9111   4.1312   4.1820   4.2748   4.6110   4.6911   4.7445   4.7858
     4.8827   5.0111   5.0856   5.2149   5.4159   5.5139   5.6192   5.9484
     6.1636   6.2455   6.3347

     the Fermi energy is     1.7811 ev

!    total energy              =  -27818.60449061 Ry

     total all-electron energy =  -1326878.662177 Ry
     estimated scf accuracy    <       0.00000021 Ry
     smearing contrib. (-TS)   =       0.00292644 Ry
     internal energy E=F+TS    =  -27818.60741705 Ry

     The total energy is F=E-TS. E is the sum of the following terms:
     one-electron contribution =  -29335.96802008 Ry
     hartree contribution      =   14971.55138445 Ry
     xc contribution           =    -909.01091842 Ry
     ewald contribution        =   12948.41931012 Ry
     one-center paw contrib.   =  -25493.59917313 Ry

     convergence has been achieved in  22 iterations

[...]

     Forces acting on atoms (cartesian axes, Ry/au):

     atom    1 type  1   force =    -0.00166896    0.00082975   -0.00554874
     atom    2 type  1   force =     0.00147334    0.00080265   -0.00551887
     atom    3 type  1   force =    -0.00011623    0.00090752   -0.00455091
     atom    4 type  1   force =    -0.00009862    0.00060895   -0.00284568
     atom    5 type  1   force =    -0.00060589    0.00039717   -0.00316596
     atom    6 type  1   force =     0.00040182    0.00038340   -0.00317666
     atom    7 type  1   force =    -0.00008100    0.00122631   -0.00379738
     atom    8 type  1   force =    -0.00010849    0.00183818   -0.00365989
     atom    9 type  1   force =    -0.00011471    0.00123624   -0.00382302
     atom   10 type  1   force =     0.00025517    0.00047716   -0.00001996
     atom   11 type  1   force =    -0.00189462    0.00120543    0.00542732
     atom   12 type  1   force =     0.00238567    0.00113805    0.00524651
     atom   13 type  1   force =     0.00042424   -0.00425842    0.00996485
     atom   14 type  1   force =     0.00022896   -0.00223311    0.00888859
     atom   15 type  1   force =     0.00023938   -0.00429920    0.00982946
     atom   16 type  1   force =     0.00128089   -0.00172682   -0.00184081
     atom   17 type  1   force =    -0.00072134   -0.00166895   -0.00182941
     atom   18 type  1   force =     0.00027757   -0.00236932    0.00045270
     atom   19 type  1   force =     0.00021103    0.00005786   -0.00053371
     atom   20 type  1   force =    -0.00029648   -0.00000697   -0.00049318
     atom   21 type  1   force =    -0.00023013   -0.00017146    0.00018288
     atom   22 type  1   force =    -0.00003729   -0.00007589   -0.00068170
     atom   23 type  1   force =    -0.00001893    0.00057874    0.00026674
     atom   24 type  1   force =    -0.00021339    0.00052825    0.00049434
     atom   25 type  1   force =    -0.00069662    0.00029655   -0.00023441
     atom   26 type  1   force =    -0.00008525    0.00017252   -0.00101680
     atom   27 type  1   force =     0.00049648    0.00043773   -0.00019839
     atom   28 type  1   force =    -0.00004085    0.00046462    0.00035953
     atom   29 type  1   force =     0.00012595    0.00067787    0.00037908
     atom   30 type  1   force =    -0.00019244    0.00039229    0.00030567
     atom   31 type  1   force =    -0.00010678    0.00063015    0.00023472
     atom   32 type  1   force =     0.00009350    0.00054357    0.00030583
     atom   33 type  1   force =    -0.00013389    0.00053316   -0.00042004
     atom   34 type  1   force =     0.00025084    0.00028432    0.00013905
     atom   35 type  1   force =    -0.00013132    0.00029210    0.00020097
     atom   36 type  1   force =    -0.00048165    0.00009674    0.00007023
     atom   37 type  2   force =     0.00066520   -0.00216735    0.00024740
     atom   38 type  2   force =    -0.00061055    0.00144883    0.00089567
     atom   39 type  2   force =     0.00289368   -0.00103601    0.00211758
     atom   40 type  3   force =     0.00012918    0.00016929    0.00022333
     atom   41 type  3   force =    -0.00013832    0.00007996    0.00023458
     atom   42 type  3   force =    -0.00002653    0.00007249    0.00027119
     atom   43 type  3   force =     0.00088450   -0.00011291   -0.00019067
     atom   44 type  3   force =    -0.00105578   -0.00006660    0.00001017
     atom   45 type  3   force =    -0.00281136    0.00138512   -0.00320219

     Total force =     0.007227     Total SCF correction =     0.001315
     SCF correction compared to forces is large: reduce conv_thr to get better values

[...]

     negative rho (up, down):  1.288E-02 0.000E+00

     negative rho (up, down):  1.288E-02 0.000E+00
 BEEFens 2000 ensemble energies
             -0.608740735989843E+02
             -0.362101630860036E+01
             -0.158601875088303E+02
              0.430867291964856E+02
             -0.221817625338278E+02
             -0.205618666867701E+02
             -0.353843019975484E+02
             -0.867928938091731E+02
             -0.465594813970886E+02
             -0.473538277214277E+02
             -0.370496680830664E+02
              0.230759772056632E+01
              0.407796752958185E+01
              0.758198497929638E+01
              0.266761006598310E+01
              0.476390110608660E+02
             -0.209211921409655E+02
             -0.230025194327210E+02
              0.193883892219004E+02
             -0.112702868545612E+03
              0.538038714756582E+02
             -0.290359767957020E+02
             -0.337201205310462E+01
             -0.114326380477629E+02
             -0.879739604938516E+01
             -0.461614589378320E+01
              0.885225803180917E+02
             -0.188410102009177E+02
             -0.900161071896105E+01
             -0.520145220811264E+02
              0.817016646960240E+02
             -0.186904045162254E+02
             -0.376194734126319E+02
              0.249428111015515E+02
             -0.285930954067021E+01
              0.165317768226467E+02
             -0.483655389986552E+01
              0.107814549335798E+02
              0.289978109140871E+02
             -0.103525998470882E+03
              0.560145183589910E+02
              0.142782257720941E+02
             -0.179531085247299E+01
             -0.362065027820849E+02
              0.123641039095112E+02
             -0.147684355201817E+02
              0.400113995593684E+02
              0.365703927630891E+02
             -0.308362461095603E+02
             -0.276019904034060E+02
             -0.329543606023399E+02
             -0.353356562990696E+02
              0.137409780805072E+02
             -0.492275434532037E+02
              0.116205001818744E+02
              0.624791396563219E+02
              0.637907236907661E+02
              0.356772899658514E+02
              0.154320004117161E+02
              0.271749690514515E+02
[...]
             -0.708545366642433E+02
             -0.831418479303238E+00
             -0.247650833614282E+01
             -0.885814323642853E+01
             -0.180942028622866E+01
             -0.654665778204482E+02
             -0.210490932687092E+02
              0.544621599612002E+01
              0.906523158896474E+01
              0.470538581283576E+02
             -0.399170469953298E+02
              0.658187975952583E+02
             -0.426406143202227E+02
              0.211479794612801E+02
              0.351649232725092E+02

 BEEF-vdW xc energy contributions
           1 :   -784.724383825282
           2 :    720.610852747345
           3 :   -609.699262330908
           4 :    479.273119377541
           5 :   -356.975279642440
           6 :    262.667703686415
           7 :   -203.950551174595
           8 :    176.179084247372
           9 :   -166.549825294478
          10 :    160.324602435563
          11 :   -146.649764850005
          12 :    121.779330850504
          13 :   -88.8771552266857
          14 :    55.0524698856976
          15 :   -27.3337613316240
          16 :    9.40842966283640
          17 :  -0.385171946854030
          18 :   -4.19720551632065
          19 :    9.84846263985742
          20 :   -20.4181032750795
          21 :    36.4425502484127
          22 :   -55.1948436753041
          23 :    72.2392977463935
          24 :   -83.6445983127959
          25 :    87.7705574259487
          26 :   -85.8444793173564
          27 :    81.1616818741790
          28 :   -77.3932291597595
          29 :    76.8475927902670
          30 :   -79.5044918858175
          31 :   -86.1879986096978
          32 :   -66.0003626007267

     Writing output data file ./pwscf.save/

     General routines

     Parallel routines

   This run was terminated on:  22:16: 5  20May2022

   JOB DONE.