     Program PWSCF v.6.7MaX starts on 21Dec2022 at 15:56:55

     Reading input from chch-vdw-ensemble.in
Warning: card &CELL ignored
Warning: card / ignored

     Current dimensions of program PWSCF are:
     Max number of different atomic species (ntypx) = 10
     Max number of k-points (npk) =  40000
     Max angular momentum in pseudopotentials (lmaxx) =  3
     file Pt.pbe-n-kjpaw_psl.1.0.0.UPF: wavefunction(s)  6S 5D renormalized
     file C.pbe-n-kjpaw_psl.1.0.0.UPF: wavefunction(s)  2S 2P renormalized
     file H.pbe-kjpaw_psl.1.0.0.UPF: wavefunction(s)  1S renormalized

     IMPORTANT: XC functional enforced from input :
     Exchange-correlation= BEEF-VDW
                           (   1   4  43  14   2   0   0)
     Any further DFT definition will be discarded
     Please, verify this is what you really want

     Subspace diagonalization in iterative solution of the eigenvalue problem:
     a serial algorithm will be used

     bravais-lattice index     =            0
     lattice parameter (alat)  =      16.0349  a.u.
     unit-cell volume          =   11521.2084 (a.u.)^3
     number of atoms/cell      =           40
     number of atomic types    =            3
     number of electrons       =       370.00
     number of Kohn-Sham states=          222
     kinetic-energy cutoff     =      60.0000  Ry
     charge density cutoff     =     240.0000  Ry
     scf convergence threshold =      1.0E-06
     mixing beta               =       0.7000
     number of iterations used =            8  local-TF  mixing
     Exchange-correlation= BEEF-VDW
                           (   1   4  43  14   2   0   0)

     celldm(1)=  16.034858  celldm(2)=   0.000000  celldm(3)=   0.000000
     celldm(4)=   0.000000  celldm(5)=   0.000000  celldm(6)=   0.000000

     crystal axes: (cart. coord. in units of alat)
               a(1) = (   1.000000   0.000000   0.000000 )
               a(2) = (   0.500000   0.866025   0.000000 )
               a(3) = (   0.000000   0.000000   3.226800 )

     reciprocal axes: (cart. coord. in units 2 pi/alat)
               b(1) = (  1.000000 -0.577350  0.000000 )
               b(2) = (  0.000000  1.154701  0.000000 )
               b(3) = (  0.000000  0.000000  0.309905 )

     PseudoPot. # 1 for Pt read from file:
     /users/bkreitz1/quantum-espresso/potentials/Pt.pbe-n-kjpaw_psl.1.0.0.UPF
     MD5 check sum: 04dc8a03c51ece93fc7b5889c2958091
     Pseudo is Projector augmented-wave + core cor, Zval = 10.0
     Generated using 'atomic' code by A. Dal Corso  v.6.7MaX
     Shape of augmentation charge: PSQ
     Using radial grid of 1277 points,  6 beta functions with:
                l(1) =   0
                l(2) =   0
                l(3) =   1
                l(4) =   1
                l(5) =   2
                l(6) =   2
     Q(r) pseudized with 0 coefficients

     PseudoPot. # 2 for C  read from file:
     /users/bkreitz1/quantum-espresso/potentials/C.pbe-n-kjpaw_psl.1.0.0.UPF
     MD5 check sum: a169b0ebad56f5ec0d79c4633f80bf22
     Pseudo is Projector augmented-wave + core cor, Zval =  4.0
     Generated using 'atomic' code by A. Dal Corso  v.6.7MaX
     Shape of augmentation charge: PSQ
     Using radial grid of 1073 points,  4 beta functions with:
                l(1) =   0
                l(2) =   0
                l(3) =   1
                l(4) =   1
     Q(r) pseudized with 0 coefficients

     PseudoPot. # 3 for H  read from file:
     /users/bkreitz1/quantum-espresso/potentials/H.pbe-kjpaw_psl.1.0.0.UPF
     MD5 check sum: ae98473e6dc62675f0d0baffdab24f65
     Pseudo is Projector augmented-wave, Zval =  1.0
     Generated using 'atomic' code by A. Dal Corso  v.6.7MaX
     Shape of augmentation charge: PSQ
     Using radial grid of  929 points,  2 beta functions with:
                l(1) =   0
                l(2) =   0
     Q(r) pseudized with 0 coefficients

     atomic species   valence    mass     pseudopotential
        Pt            10.00   195.08400     Pt( 1.00)
        C              4.00    12.01100     C ( 1.00)
        H              1.00     1.00800     H ( 1.00)

     No symmetry found

   Cartesian axes

     site n.     atom                  positions (alat units)
         1           Pt  tau(   1) = (   0.0000000   0.0000000   1.0017346  )
         2           Pt  tau(   2) = (   0.3333333   0.0000000   1.0017346  )
         3           Pt  tau(   3) = (   0.6666667   0.0000000   1.0017346  )
         4           Pt  tau(   4) = (   0.1666667   0.2886751   1.0017346  )
         5           Pt  tau(   5) = (   0.5000000   0.2886751   1.0017346  )
         6           Pt  tau(   6) = (   0.8333333   0.2886751   1.0017346  )
         7           Pt  tau(   7) = (   0.3333333   0.5773503   1.0017346  )
         8           Pt  tau(   8) = (   0.6666667   0.5773503   1.0017346  )
         9           Pt  tau(   9) = (   1.0000000   0.5773503   1.0017346  )
        10           Pt  tau(  10) = (   0.1666667   0.0962250   1.2739001  )
        11           Pt  tau(  11) = (   0.5000000   0.0962250   1.2739001  )
        12           Pt  tau(  12) = (   0.8333333   0.0962250   1.2739001  )
        13           Pt  tau(  13) = (   0.3333333   0.3849002   1.2739001  )
        14           Pt  tau(  14) = (   0.6666667   0.3849002   1.2739001  )
        15           Pt  tau(  15) = (   1.0000000   0.3849002   1.2739001  )
        16           Pt  tau(  16) = (   0.5000000   0.6735753   1.2739001  )
        17           Pt  tau(  17) = (   0.8333333   0.6735753   1.2739001  )
        18           Pt  tau(  18) = (   1.1666667   0.6735753   1.2739001  )
        19           Pt  tau(  19) = (   0.0000010   0.1924441   1.5425153  )
        20           Pt  tau(  20) = (   0.3333283   0.1924715   1.5422971  )
        21           Pt  tau(  21) = (   0.6666581   0.1924461   1.5425220  )
        22           Pt  tau(  22) = (   0.1666742   0.4811301   1.5424657  )
        23           Pt  tau(  23) = (   0.4999842   0.4811332   1.5424682  )
        24           Pt  tau(  24) = (   0.8333303   0.4811009   1.5425483  )
        25           Pt  tau(  25) = (   0.3333309   0.7698031   1.5424755  )
        26           Pt  tau(  26) = (   0.6666374   0.7698079   1.5425445  )
        27           Pt  tau(  27) = (   1.0000194   0.7698099   1.5425454  )
        28           Pt  tau(  28) = (   0.0000022  -0.0000282   1.8164853  )
        29           Pt  tau(  29) = (   0.3333232  -0.0001494   1.8162754  )
        30           Pt  tau(  30) = (   0.6666642  -0.0000300   1.8164819  )
        31           Pt  tau(  31) = (   0.1666544   0.2886735   1.8162912  )
        32           Pt  tau(  32) = (   0.5000018   0.2886769   1.8163007  )
        33           Pt  tau(  33) = (   0.8333322   0.2887050   1.8165778  )
        34           Pt  tau(  34) = (   0.3333315   0.5774168   1.8163035  )
        35           Pt  tau(  35) = (   0.6667101   0.5773435   1.8164569  )
        36           Pt  tau(  36) = (   0.9999500   0.5773391   1.8164473  )
        37           C   tau(  37) = (   0.2629755   0.2879334   2.2241546  )
        38           C   tau(  38) = (   0.4050214   0.2877792   2.2241578  )
        39           H   tau(  39) = (   1.1377557   0.2879475   2.2249489  )
        40           H   tau(  40) = (   0.5302000   0.2875806   2.2250942  )

     number of k points=    13  Marzari-Vanderbilt smearing, width (Ry)=  0.0200
                       cart. coord. in units 2pi/alat
        k(    1) = (   0.0000000   0.0000000   0.0000000), wk =   0.0800000
        k(    2) = (   0.0000000   0.2309401   0.0000000), wk =   0.1600000
        k(    3) = (   0.0000000   0.4618802   0.0000000), wk =   0.1600000
        k(    4) = (   0.2000000  -0.1154701   0.0000000), wk =   0.1600000
        k(    5) = (   0.2000000   0.1154701   0.0000000), wk =   0.1600000
        k(    6) = (   0.2000000   0.3464102   0.0000000), wk =   0.1600000
        k(    7) = (   0.2000000  -0.5773503   0.0000000), wk =   0.1600000
        k(    8) = (   0.2000000  -0.3464102   0.0000000), wk =   0.1600000
        k(    9) = (   0.4000000  -0.2309401   0.0000000), wk =   0.1600000
        k(   10) = (   0.4000000  -0.0000000   0.0000000), wk =   0.1600000
        k(   11) = (   0.4000000   0.2309401   0.0000000), wk =   0.1600000
        k(   12) = (   0.4000000  -0.6928203   0.0000000), wk =   0.1600000
        k(   13) = (   0.4000000  -0.4618802   0.0000000), wk =   0.1600000

     Check: negative core charge=   -0.000002

     Initial potential from superposition of free atoms

     starting charge  369.99379, renormalised to  370.00000

     negative rho (up, down):  1.091E-02 0.000E+00

     %%%%%%%%%%%%%%%%%%%%%%%%%%%%%%%%%%%%%%%%%%%%%%%%%%%%%%%%%%%%%%%%%%%%%%%%
     %                                                                      %
     % You are using vdW-DF, which was implemented by the Thonhauser group. %
     % Please cite the following two papers that made this development      %
     % possible and the two reviews that describe the various versions:     %
     %                                                                      %
     %   T. Thonhauser et al., PRL 115, 136402 (2015).                      %
     %   T. Thonhauser et al., PRB 76, 125112 (2007).                       %
     %   K. Berland et al., Rep. Prog. Phys. 78, 066501 (2015).             %
     %   D.C. Langreth et al., J. Phys.: Condens. Matter 21, 084203 (2009). %
     %                                                                      %
     %                                                                      %
     % If you are calculating the stress with vdW-DF, please also cite:     %
     %                                                                      %
     %   R. Sabatini et al., J. Phys.: Condens. Matter 24, 424209 (2012).   %
     %                                                                      %
     %%%%%%%%%%%%%%%%%%%%%%%%%%%%%%%%%%%%%%%%%%%%%%%%%%%%%%%%%%%%%%%%%%%%%%%%

     Starting wfcs are  334 randomized atomic wfcs
     Checking if some PAW data can be deallocated...

     Self-consistent Calculation

     iteration #  1     ecut=    60.00 Ry     beta= 0.70
     Davidson diagonalization with overlap
     ethr =  1.00E-02,  avg # of iterations =  2.0

     Threshold (ethr) on eigenvalues was too large:
     Diagonalizing with lowered threshold

     Davidson diagonalization with overlap
     ethr =  5.33E-04,  avg # of iterations =  4.2

[...]

     total energy              =  -27794.38719887 Ry
     estimated scf accuracy    <       2.19096414 Ry

[...]

     iteration #  4     ecut=    60.00 Ry     beta= 0.70
     Davidson diagonalization with overlap
     c_bands:  1 eigenvalues not converged
     ethr =  6.40E-05,  avg # of iterations = 11.6

[...]

     iteration # 15     ecut=    60.00 Ry     beta= 0.70
     Davidson diagonalization with overlap
     c_bands:  1 eigenvalues not converged
     c_bands:  1 eigenvalues not converged
     ethr =  7.84E-09,  avg # of iterations =  5.3

[...]

     total energy              =  -27794.54811240 Ry
     estimated scf accuracy    <       0.00000298 Ry

     iteration # 21     ecut=    60.00 Ry     beta= 0.70
     Davidson diagonalization with overlap
     ethr =  8.06E-10,  avg # of iterations =  1.4

[...]

     End of self-consistent calculation

          k = 0.0000 0.0000 0.0000 ( 90475 PWs)   bands (ev):

   -11.9955  -7.3532  -7.1638  -5.8532  -5.4918  -4.7748  -4.7421  -4.7415
    -4.7414  -4.7409  -4.7408  -4.7407  -4.7278  -4.1830  -4.1829  -4.1828
    -4.1823  -4.1823  -4.1821  -3.7088  -3.7083  -3.7081  -3.7078  -3.7077
    -3.7076  -3.4929  -3.4924  -3.4924  -3.4917  -3.4916  -3.4914  -3.2666
    -3.2658  -3.2604  -3.2597  -3.2443  -3.2442  -3.2438  -3.2438  -3.2434
    -3.2434  -3.2296  -3.2296  -2.6477  -2.6473  -2.6157  -2.6156  -2.5590
    -2.5585  -2.5583  -2.5580  -2.5578  -2.5577  -2.4209  -2.4209  -2.3191
    -2.3188  -1.8124  -1.8109  -1.8105  -1.8098  -1.8093  -1.8089  -1.7441
    -1.6566  -1.6566  -1.6243  -1.6239  -1.6117  -1.6116  -1.6015  -1.5927
    -1.5921  -1.5919  -1.5909  -1.5904  -1.5904  -1.5550  -1.5549  -1.4002
    -1.3969  -1.3960  -1.3948  -1.3944  -1.3943  -1.2452  -1.2442  -1.2429
    -1.2425  -1.2422  -1.2422  -1.1434  -1.1433  -1.0450  -1.0449  -0.9817
    -0.9810  -0.9781  -0.9730  -0.9362  -0.9347  -0.9324  -0.9248  -0.8484
    -0.7794  -0.7725  -0.7718  -0.7690  -0.7689  -0.7665  -0.4165  -0.3576
    -0.2766  -0.2751  -0.2745  -0.2740  -0.2735  -0.2733  -0.2019  -0.2001
    -0.1997  -0.1993  -0.1774  -0.1631  -0.1269  -0.1262   0.0425   0.0440
     0.0444   0.0450   0.0613   0.0981   0.1873   0.1905   0.1916   0.1917
     0.1999   0.2003   0.4556   0.4561   0.4566   0.4568   0.4572   0.4574
     0.5363   0.5366   0.7149   0.7175   0.7193   0.7196   0.7223   0.7303
     0.8896   0.8904   0.8906   0.8908   0.8908   0.8916   0.9284   0.9322
     0.9348   0.9353   0.9431   0.9630   1.0630   1.0673   1.0863   1.0866
     1.0876   1.0881   1.0881   1.0885   1.1935   1.1937   1.1943   1.1946
     1.1951   1.1957   1.2001   1.2002   1.2964   1.2975   1.2976   1.2981
     1.2982   1.2986   1.3976   1.4009   1.4071   1.4089   1.4093   1.4105
     1.5344   1.6264   1.6264   1.7338   1.7348   1.7353   1.7355   1.7359
     1.7362   2.5760   2.6091   2.6174   2.6212   2.6214   2.6375   2.7069
     4.9068   4.9348   4.9403   4.9487   4.9755   5.0049   6.1862   6.3812
     6.4214   6.4909   6.5465   6.5482   6.5509   6.6045

[...]

          k = 0.4000-0.4619 0.0000 ( 90442 PWs)   bands (ev):

   -11.9955  -7.3544  -6.1961  -6.1951  -5.5884  -5.4909  -4.9338  -4.9333
    -4.4242  -4.4186  -4.2892  -4.2556  -4.1459  -4.1456  -4.0381  -4.0376
    -3.9125  -3.9116  -3.9103  -3.8737  -3.8731  -3.8400  -3.8394  -3.7148
    -3.7043  -3.7039  -3.6607  -3.6606  -3.5577  -3.4648  -3.4481  -3.3828
    -3.2884  -3.2878  -3.2699  -3.2693  -3.2543  -3.1399  -3.1397  -3.0462
    -3.0457  -2.8721  -2.8638  -2.8038  -2.7029  -2.7028  -2.6518  -2.6516
    -2.5437  -2.4938  -2.4443  -2.4439  -2.4230  -2.3799  -2.3783  -2.3485
    -2.2426  -2.2423  -2.2125  -2.2123  -2.2040  -2.2027  -2.2024  -2.1288
    -2.1279  -1.9984  -1.9735  -1.9251  -1.9245  -1.8064  -1.7684  -1.7668
    -1.7666  -1.7212  -1.6773  -1.6770  -1.5908  -1.5633  -1.5624  -1.5576
    -1.5280  -1.4969  -1.4438  -1.4433  -1.4034  -1.3466  -1.3449  -1.3257
    -1.3238  -1.2145  -1.1666  -1.1659  -1.1203  -1.1190  -1.0784  -1.0778
    -1.0645  -1.0602  -1.0298  -1.0283  -0.9806  -0.9786  -0.9454  -0.9339
    -0.9299  -0.9277  -0.9263  -0.9092  -0.8794  -0.8160  -0.8111  -0.8098
    -0.6327  -0.5998  -0.5305  -0.4970  -0.4915  -0.3904  -0.3805  -0.3746
    -0.3687  -0.3386  -0.2857  -0.2850  -0.2701  -0.2563  -0.2366  -0.1644
    -0.1417  -0.1404  -0.0748  -0.0553  -0.0258   0.0078   0.0443   0.0890
     0.2080   0.2676   0.2701   0.2888   0.2901   0.3834   0.3876   0.3923
     0.4109   0.4217   0.4525   0.4672   0.4740   0.5842   0.5891   0.6001
     0.6545   0.6562   0.6789   0.6849   0.6988   0.7178   0.8639   0.9113
     0.9447   1.0190   1.0307   1.1040   1.1049   1.1899   1.2336   1.2373
     1.2409   1.3416   1.3489   1.4181   1.4502   1.4584   1.4665   1.4701
     1.5125   1.5218   1.5475   1.6264   1.6271   1.6509   1.6784   1.6792
     1.6808   1.7032   1.7433   1.8848   1.8909   1.8916   1.8923   1.8934
     1.9679   2.0417   2.0821   2.2227   3.0414   3.0416   3.2630   3.2998
     3.3379   3.4441   3.4472   3.4527   3.9035   4.0530   4.0539   4.5120
     4.5281   4.5439   4.6575   4.6596   4.8723   4.9545   5.0075   5.1160
     5.3948   5.4824   5.4966   5.9930   6.1100   6.1381

     the Fermi energy is     1.6583 ev

!    total energy              =  -27794.54811228 Ry

     total all-electron energy =  -1326796.841719 Ry
     estimated scf accuracy    <       0.00000095 Ry
     smearing contrib. (-TS)   =       0.00255976 Ry
     internal energy E=F+TS    =  -27794.55067204 Ry

     The total energy is F=E-TS. E is the sum of the following terms:
     one-electron contribution =  -27479.76051262 Ry
     hartree contribution      =   14039.18823161 Ry
     xc contribution           =    -900.87454988 Ry
     ewald contribution        =   12033.95861636 Ry
     one-center paw contrib.   =  -25487.06245750 Ry

     convergence has been achieved in  21 iterations

[...]

     Forces acting on atoms (cartesian axes, Ry/au):

     atom    1 type  1   force =    -0.00027904    0.00001532   -0.00328029
     atom    2 type  1   force =     0.00001131   -0.00000412   -0.00300751
     atom    3 type  1   force =     0.00029400    0.00007903   -0.00328716
     atom    4 type  1   force =     0.00007181    0.00007081   -0.00317117
     atom    5 type  1   force =     0.00000182    0.00009826   -0.00314078
     atom    6 type  1   force =    -0.00004462   -0.00016599   -0.00310717
     atom    7 type  1   force =     0.00005576   -0.00000398   -0.00316684
     atom    8 type  1   force =    -0.00005329   -0.00000725   -0.00304382
     atom    9 type  1   force =     0.00002056    0.00002820   -0.00306997
     atom   10 type  1   force =     0.00000796   -0.00026413    0.00259372
     atom   11 type  1   force =     0.00004790   -0.00018749    0.00258922
     atom   12 type  1   force =    -0.00003237   -0.00004401    0.00375767
     atom   13 type  1   force =     0.00008515    0.00000599    0.00261982
     atom   14 type  1   force =     0.00000990    0.00014632    0.00284546
     atom   15 type  1   force =    -0.00007856    0.00013955    0.00281777
     atom   16 type  1   force =     0.00017347    0.00002055    0.00302106
     atom   17 type  1   force =    -0.00004010   -0.00000798    0.00271166
     atom   18 type  1   force =    -0.00010239    0.00008345    0.00299258
     atom   19 type  1   force =    -0.00006491   -0.00007128    0.00033850
     atom   20 type  1   force =     0.00006533    0.00001974    0.00001726
     atom   21 type  1   force =     0.00002577    0.00000071    0.00031106
     atom   22 type  1   force =     0.00008659    0.00005145    0.00015891
     atom   23 type  1   force =     0.00001573    0.00002781    0.00012955
     atom   24 type  1   force =    -0.00007820   -0.00006300    0.00024420
     atom   25 type  1   force =     0.00004924    0.00018734    0.00011634
     atom   26 type  1   force =    -0.00012277    0.00001683    0.00007656
     atom   27 type  1   force =     0.00010395    0.00008363    0.00006640
     atom   28 type  1   force =    -0.00011203   -0.00001683    0.00040587
     atom   29 type  1   force =     0.00000365   -0.00016815   -0.00006267
     atom   30 type  1   force =     0.00012594    0.00002846    0.00039702
     atom   31 type  1   force =     0.00011029   -0.00011115   -0.00024754
     atom   32 type  1   force =    -0.00006591   -0.00008205   -0.00027214
     atom   33 type  1   force =    -0.00003228    0.00000603    0.00058866
     atom   34 type  1   force =     0.00005339    0.00015563    0.00001760
     atom   35 type  1   force =     0.00011007   -0.00001974    0.00034300
     atom   36 type  1   force =    -0.00014034    0.00000951    0.00039322
     atom   37 type  2   force =    -0.00076554   -0.00052633   -0.00037575
     atom   38 type  2   force =    -0.00006373    0.00037075   -0.00039785
     atom   39 type  3   force =    -0.00016458    0.00006581    0.00005537
     atom   40 type  3   force =     0.00071109    0.00003229    0.00002222

     Total force =     0.001877     Total SCF correction =     0.001632
     SCF correction compared to forces is large: reduce conv_thr to get better values

[...]

     negative rho (up, down):  1.186E-02 0.000E+00

     negative rho (up, down):  1.186E-02 0.000E+00
 BEEFens 2000 ensemble energies
             -0.602681048896658E+02
             -0.358449749484996E+01
             -0.157325265301063E+02
              0.426614480944979E+02
             -0.220005433833954E+02
             -0.204221343155198E+02
             -0.349515577849897E+02
             -0.858761398673095E+02
             -0.462764526846859E+02
             -0.470344734902574E+02
             -0.366935434107672E+02
              0.226180326159383E+01
              0.402860655598141E+01
              0.764543871109811E+01
              0.262324145547939E+01
              0.471971944629113E+02
             -0.207500088390208E+02
             -0.229284514581415E+02
              0.191414049081519E+02
             -0.111698177443391E+03
              0.532761880562824E+02
             -0.288591031593859E+02
             -0.329808572377771E+01
             -0.113661593318143E+02
             -0.883085185336154E+01
             -0.458452655340923E+01
              0.877293698009232E+02
             -0.185914005147858E+02
             -0.893267166670830E+01
             -0.514777716326880E+02
              0.810973733081025E+02
             -0.186713224469757E+02
             -0.372206787692509E+02
              0.247914942990237E+02
             -0.283289020575211E+01
              0.162290838211567E+02
             -0.487431302261518E+01
              0.108121564303011E+02
              0.286124281677075E+02
             -0.102623491810331E+03
              0.555079807294002E+02
              0.141645421324696E+02
             -0.167147572701037E+01
             -0.359349277867587E+02
              0.122492863518943E+02
             -0.145893093369385E+02
              0.395151321460841E+02
              0.362666157030358E+02
             -0.306848678144064E+02
             -0.272927996433747E+02
             -0.326390071891824E+02
             -0.349957690109867E+02
              0.135254134553969E+02
             -0.487377725854917E+02
              0.114639300331950E+02
              0.619315604355635E+02
              0.630703075751001E+02
              0.354040442809611E+02
              0.152982039152403E+02
              0.268618242629011E+02
[...]
             -0.701427204323732E+02
             -0.885982107182031E+00
             -0.249107365143108E+01
             -0.875190975786938E+01
             -0.184240318437395E+01
             -0.648763594731490E+02
             -0.209837089433122E+02
              0.531888957952077E+01
              0.892939661876835E+01
              0.465653337193659E+02
             -0.394946484487184E+02
              0.653809698894521E+02
             -0.422731011839484E+02
              0.208800160426623E+02
              0.347507289095431E+02

 BEEF-vdW xc energy contributions
           1 :   -777.982441695191
           2 :    714.807955925904
           3 :   -605.457180935364
           4 :    476.758209040426
           5 :   -355.944236524950
           6 :    262.626313079461
           7 :   -204.361381223448
           8 :    176.652158263219
           9 :   -166.937974060411
          10 :    160.689640003387
          11 :   -147.134120873870
          12 :    122.463655360797
          13 :   -89.7030703420177
          14 :    55.8468433239196
          15 :   -27.9073483024602
          16 :    9.65846488964735
          17 :  -0.344871075434185
          18 :   -4.38329714145107
          19 :    10.0070944405270
          20 :   -20.4407850658893
          21 :    36.3392870143725
          22 :   -55.0799738465577
          23 :    72.2589263833346
          24 :   -83.8886967635769
          25 :    88.2135285136143
          26 :   -86.3466308939559
          27 :    81.5426497099569
          28 :   -77.5341442910379
          29 :    76.7514439258421
          30 :   -79.2838410915946
          31 :   -85.2353199309056
          32 :   -65.3384164612434

     Writing output data file ./pwscf.save/

     General routines

     Parallel routines

   This run was terminated on:  20: 9:49  21Dec2022

   JOB DONE.