     Program PWSCF v.6.7MaX starts on  4Jan2023 at 10:10:55

     Reading input from chco-mono-ensemble.in
Warning: card &CELL ignored
Warning: card / ignored

     Current dimensions of program PWSCF are:
     Max number of different atomic species (ntypx) = 10
     Max number of k-points (npk) =  40000
     Max angular momentum in pseudopotentials (lmaxx) =  3
     file Pt.pbe-n-kjpaw_psl.1.0.0.UPF: wavefunction(s)  6S 5D renormalized
     file C.pbe-n-kjpaw_psl.1.0.0.UPF: wavefunction(s)  2S 2P renormalized
     file O.pbe-nl-kjpaw_psl.1.0.0.UPF: wavefunction(s)  2S 2P renormalized
     file H.pbe-kjpaw_psl.1.0.0.UPF: wavefunction(s)  1S renormalized

     IMPORTANT: XC functional enforced from input :
     Exchange-correlation= BEEF-VDW
                           (   1   4  43  14   2   0   0)
     Any further DFT definition will be discarded
     Please, verify this is what you really want

     Subspace diagonalization in iterative solution of the eigenvalue problem:
     a serial algorithm will be used

     bravais-lattice index     =            0
     lattice parameter (alat)  =      16.0349  a.u.
     unit-cell volume          =   12161.3974 (a.u.)^3
     number of atoms/cell      =           40
     number of atomic types    =            4
     number of electrons       =       375.00
     number of Kohn-Sham states=          226
     kinetic-energy cutoff     =      60.0000  Ry
     charge density cutoff     =     240.0000  Ry
     scf convergence threshold =      1.0E-06
     mixing beta               =       0.7000
     number of iterations used =            8  local-TF  mixing
     Exchange-correlation= BEEF-VDW
                           (   1   4  43  14   2   0   0)

     celldm(1)=  16.034858  celldm(2)=   0.000000  celldm(3)=   0.000000
     celldm(4)=   0.000000  celldm(5)=   0.000000  celldm(6)=   0.000000

     crystal axes: (cart. coord. in units of alat)
               a(1) = (   1.000000   0.000000   0.000000 )
               a(2) = (   0.500000   0.866025   0.000000 )
               a(3) = (   0.000000   0.000000   3.406101 )

     reciprocal axes: (cart. coord. in units 2 pi/alat)
               b(1) = (  1.000000 -0.577350  0.000000 )
               b(2) = (  0.000000  1.154701  0.000000 )
               b(3) = (  0.000000  0.000000  0.293591 )

     PseudoPot. # 1 for Pt read from file:
     /users/bkreitz1/quantum-espresso/potentials/Pt.pbe-n-kjpaw_psl.1.0.0.UPF
     MD5 check sum: 04dc8a03c51ece93fc7b5889c2958091
     Pseudo is Projector augmented-wave + core cor, Zval = 10.0
     Generated using 'atomic' code by A. Dal Corso  v.6.7MaX
     Shape of augmentation charge: PSQ
     Using radial grid of 1277 points,  6 beta functions with:
                l(1) =   0
                l(2) =   0
                l(3) =   1
                l(4) =   1
                l(5) =   2
                l(6) =   2
     Q(r) pseudized with 0 coefficients

     PseudoPot. # 2 for C  read from file:
     /users/bkreitz1/quantum-espresso/potentials/C.pbe-n-kjpaw_psl.1.0.0.UPF
     MD5 check sum: a169b0ebad56f5ec0d79c4633f80bf22
     Pseudo is Projector augmented-wave + core cor, Zval =  4.0
     Generated using 'atomic' code by A. Dal Corso  v.6.7MaX
     Shape of augmentation charge: PSQ
     Using radial grid of 1073 points,  4 beta functions with:
                l(1) =   0
                l(2) =   0
                l(3) =   1
                l(4) =   1
     Q(r) pseudized with 0 coefficients

     PseudoPot. # 3 for O  read from file:
     /users/bkreitz1/quantum-espresso/potentials/O.pbe-nl-kjpaw_psl.1.0.0.UPF
     MD5 check sum: eef08af8b58d9ec80f8fdb78829eb7cf
     Pseudo is Projector augmented-wave + core cor, Zval =  6.0
     Generated using 'atomic' code by A. Dal Corso  v.6.7MaX
     Shape of augmentation charge: PSQ
     Using radial grid of 1095 points,  4 beta functions with:
                l(1) =   0
                l(2) =   0
                l(3) =   1
                l(4) =   1
     Q(r) pseudized with 0 coefficients

     PseudoPot. # 4 for H  read from file:
     /users/bkreitz1/quantum-espresso/potentials/H.pbe-kjpaw_psl.1.0.0.UPF
     MD5 check sum: ae98473e6dc62675f0d0baffdab24f65
     Pseudo is Projector augmented-wave, Zval =  1.0
     Generated using 'atomic' code by A. Dal Corso  v.6.7MaX
     Shape of augmentation charge: PSQ
     Using radial grid of  929 points,  2 beta functions with:
                l(1) =   0
                l(2) =   0
     Q(r) pseudized with 0 coefficients

     atomic species   valence    mass     pseudopotential
        Pt            10.00   195.08400     Pt( 1.00)
        C              4.00    12.01100     C ( 1.00)
        O              6.00    15.99900     O ( 1.00)
        H              1.00     1.00800     H ( 1.00)

     No symmetry found

   Cartesian axes

     site n.     atom                  positions (alat units)
         1           Pt  tau(   1) = (   0.0000000   0.0000000   1.0017346  )
         2           Pt  tau(   2) = (   0.3333333   0.0000000   1.0017346  )
         3           Pt  tau(   3) = (   0.6666667   0.0000000   1.0017346  )
         4           Pt  tau(   4) = (   0.1666667   0.2886751   1.0017346  )
         5           Pt  tau(   5) = (   0.5000000   0.2886751   1.0017346  )
         6           Pt  tau(   6) = (   0.8333333   0.2886751   1.0017346  )
         7           Pt  tau(   7) = (   0.3333333   0.5773503   1.0017346  )
         8           Pt  tau(   8) = (   0.6666667   0.5773503   1.0017346  )
         9           Pt  tau(   9) = (   1.0000000   0.5773503   1.0017346  )
        10           Pt  tau(  10) = (   0.1666667   0.0962250   1.2739001  )
        11           Pt  tau(  11) = (   0.5000000   0.0962250   1.2739001  )
        12           Pt  tau(  12) = (   0.8333333   0.0962250   1.2739001  )
        13           Pt  tau(  13) = (   0.3333333   0.3849002   1.2739001  )
        14           Pt  tau(  14) = (   0.6666667   0.3849002   1.2739001  )
        15           Pt  tau(  15) = (   1.0000000   0.3849002   1.2739001  )
        16           Pt  tau(  16) = (   0.5000000   0.6735753   1.2739001  )
        17           Pt  tau(  17) = (   0.8333333   0.6735753   1.2739001  )
        18           Pt  tau(  18) = (   1.1666667   0.6735753   1.2739001  )
        19           Pt  tau(  19) = (   0.0001512   0.1913762   1.5418382  )
        20           Pt  tau(  20) = (   0.3353911   0.1926532   1.5477864  )
        21           Pt  tau(  21) = (   0.6649549   0.1925454   1.5471183  )
        22           Pt  tau(  22) = (   0.1667098   0.4796270   1.5422702  )
        23           Pt  tau(  23) = (   0.5000459   0.4782401   1.5455312  )
        24           Pt  tau(  24) = (   0.8333379   0.4796240   1.5422632  )
        25           Pt  tau(  25) = (   0.3334859   0.7686508   1.5410345  )
        26           Pt  tau(  26) = (   0.6667534   0.7688475   1.5412104  )
        27           Pt  tau(  27) = (   0.9999682   0.7687141   1.5422146  )
        28           Pt  tau(  28) = (  -0.0000818  -0.0035154   1.8166536  )
        29           Pt  tau(  29) = (   0.3317802  -0.0057792   1.8156881  )
        30           Pt  tau(  30) = (   0.6681924  -0.0058927   1.8148472  )
        31           Pt  tau(  31) = (   0.1644356   0.2851112   1.8169333  )
        32           Pt  tau(  32) = (   0.4996384   0.2832259   1.8361835  )
        33           Pt  tau(  33) = (   0.8353584   0.2849664   1.8167706  )
        34           Pt  tau(  34) = (   0.3324764   0.5756393   1.8146548  )
        35           Pt  tau(  35) = (   0.6672046   0.5757592   1.8147384  )
        36           Pt  tau(  36) = (   0.9999183   0.5736950   1.8165129  )
        37           C   tau(  37) = (   0.5072586   0.2764076   2.0723486  )
        38           C   tau(  38) = (   0.4979240   0.4057923   2.1587222  )
        39           O   tau(  39) = (   0.4885995   0.5207423   2.2351403  )
        40           H   tau(  40) = (   0.5206591   0.1641432   2.1328001  )

     number of k points=    13  Marzari-Vanderbilt smearing, width (Ry)=  0.0200
                       cart. coord. in units 2pi/alat
        k(    1) = (   0.0000000   0.0000000   0.0000000), wk =   0.0800000
        k(    2) = (   0.0000000   0.2309401   0.0000000), wk =   0.1600000
        k(    3) = (   0.0000000   0.4618802   0.0000000), wk =   0.1600000
        k(    4) = (   0.2000000  -0.1154701   0.0000000), wk =   0.1600000
        k(    5) = (   0.2000000   0.1154701   0.0000000), wk =   0.1600000
        k(    6) = (   0.2000000   0.3464102   0.0000000), wk =   0.1600000
        k(    7) = (   0.2000000  -0.5773503   0.0000000), wk =   0.1600000
        k(    8) = (   0.2000000  -0.3464102   0.0000000), wk =   0.1600000
        k(    9) = (   0.4000000  -0.2309401   0.0000000), wk =   0.1600000
        k(   10) = (   0.4000000  -0.0000000   0.0000000), wk =   0.1600000
        k(   11) = (   0.4000000   0.2309401   0.0000000), wk =   0.1600000
        k(   12) = (   0.4000000  -0.6928203   0.0000000), wk =   0.1600000
        k(   13) = (   0.4000000  -0.4618802   0.0000000), wk =   0.1600000

     Check: negative core charge=   -0.000002

     Initial potential from superposition of free atoms

     starting charge  374.99380, renormalised to  375.00000

     negative rho (up, down):  1.344E-02 0.000E+00

     %%%%%%%%%%%%%%%%%%%%%%%%%%%%%%%%%%%%%%%%%%%%%%%%%%%%%%%%%%%%%%%%%%%%%%%%
     %                                                                      %
     % You are using vdW-DF, which was implemented by the Thonhauser group. %
     % Please cite the following two papers that made this development      %
     % possible and the two reviews that describe the various versions:     %
     %                                                                      %
     %   T. Thonhauser et al., PRL 115, 136402 (2015).                      %
     %   T. Thonhauser et al., PRB 76, 125112 (2007).                       %
     %   K. Berland et al., Rep. Prog. Phys. 78, 066501 (2015).             %
     %   D.C. Langreth et al., J. Phys.: Condens. Matter 21, 084203 (2009). %
     %                                                                      %
     %                                                                      %
     % If you are calculating the stress with vdW-DF, please also cite:     %
     %                                                                      %
     %   R. Sabatini et al., J. Phys.: Condens. Matter 24, 424209 (2012).   %
     %                                                                      %
     %%%%%%%%%%%%%%%%%%%%%%%%%%%%%%%%%%%%%%%%%%%%%%%%%%%%%%%%%%%%%%%%%%%%%%%%

     Starting wfcs are  337 randomized atomic wfcs
     Checking if some PAW data can be deallocated...

     Self-consistent Calculation

     iteration #  1     ecut=    60.00 Ry     beta= 0.70
     Davidson diagonalization with overlap
     ethr =  1.00E-02,  avg # of iterations =  2.0

     Threshold (ethr) on eigenvalues was too large:
     Diagonalizing with lowered threshold

     Davidson diagonalization with overlap
     ethr =  7.77E-04,  avg # of iterations =  2.8

[...]

     total energy              =  -27835.57717729 Ry
     estimated scf accuracy    <       3.14077521 Ry

[...]

     iteration #  4     ecut=    60.00 Ry     beta= 0.70
     Davidson diagonalization with overlap
     c_bands:  1 eigenvalues not converged
     c_bands:  1 eigenvalues not converged
     c_bands:  1 eigenvalues not converged
     c_bands:  1 eigenvalues not converged
     ethr =  9.35E-05,  avg # of iterations = 17.0

[...]

     iteration # 17     ecut=    60.00 Ry     beta= 0.70
     Davidson diagonalization with overlap
     c_bands:  1 eigenvalues not converged
     ethr =  3.02E-09,  avg # of iterations =  3.5

[...]

     total energy              =  -27835.89207285 Ry
     estimated scf accuracy    <       0.00000156 Ry

     iteration # 19     ecut=    60.00 Ry     beta= 0.70
     Davidson diagonalization with overlap
     ethr =  4.17E-10,  avg # of iterations =  4.5

[...]

     End of self-consistent calculation

          k = 0.0000 0.0000 0.0000 ( 95403 PWs)   bands (ev):

   -21.8293 -13.1150  -7.5305  -6.9312  -6.2454  -5.8004  -5.3187  -5.1457
    -5.1205  -5.1123  -5.1086  -5.1021  -5.0810  -5.0770  -4.9691  -4.6850
    -4.5549  -4.5530  -4.5517  -4.5414  -4.5400  -4.5160  -4.0951  -4.0900
    -4.0815  -4.0746  -4.0721  -4.0589  -3.8926  -3.8629  -3.8606  -3.8587
    -3.8578  -3.8556  -3.6845  -3.6372  -3.6364  -3.6331  -3.6303  -3.6294
    -3.6230  -3.6152  -3.6063  -3.6042  -3.5874  -3.5632  -3.3494  -3.0354
    -3.0176  -3.0011  -2.9971  -2.9708  -2.9460  -2.9361  -2.9349  -2.9336
    -2.8928  -2.7859  -2.7609  -2.7027  -2.5526  -2.3099  -2.2224  -2.1994
    -2.1964  -2.1844  -2.1742  -2.1140  -2.0605  -2.0254  -2.0180  -2.0172
    -1.9958  -1.9893  -1.9789  -1.9745  -1.9706  -1.9492  -1.9465  -1.9404
    -1.9160  -1.9130  -1.8784  -1.8194  -1.7849  -1.7793  -1.7786  -1.7611
    -1.6298  -1.6201  -1.6077  -1.6056  -1.5960  -1.5746  -1.5731  -1.5527
    -1.5482  -1.4860  -1.4737  -1.4716  -1.4115  -1.4088  -1.3479  -1.3472
    -1.3109  -1.3071  -1.2924  -1.2299  -1.1768  -1.1544  -1.1524  -1.1424
    -1.1288  -0.8550  -0.7844  -0.7131  -0.6891  -0.6824  -0.6656  -0.6528
    -0.6509  -0.6474  -0.5890  -0.5865  -0.5818  -0.5475  -0.5135  -0.4895
    -0.4160  -0.3863  -0.3526  -0.3475  -0.3007  -0.2738  -0.2533  -0.2476
    -0.1855  -0.1652  -0.1610  -0.1557   0.0105   0.0342   0.0805   0.0813
     0.0853   0.1062   0.1444   0.1609   0.3252   0.3275   0.3356   0.3503
     0.3540   0.3999   0.4448   0.4834   0.4928   0.5120   0.5164   0.5181
     0.5437   0.5449   0.5512   0.5532   0.5649   0.6290   0.6458   0.6480
     0.6559   0.6664   0.6810   0.7142   0.7342   0.7602   0.7624   0.7860
     0.7886   0.8132   0.8229   0.8306   0.8380   0.8489   0.9026   0.9049
     0.9210   0.9300   0.9310   0.9448   0.9842   1.0092   1.0250   1.0260
     1.0463   1.0524   1.1054   1.2195   1.2530   1.3233   1.3341   1.3574
     1.3614   1.3688   1.3792   1.5452   2.1734   2.2354   2.2407   2.2496
     2.2652   2.3290   3.2493   4.4827   4.5415   4.5461   4.5741   4.6081
     4.7338   5.5040   5.9858   6.1102   6.1360   6.1657   6.1772   6.1785
     6.2215   6.2486

[...]

          k = 0.4000-0.4619 0.0000 ( 95470 PWs)   bands (ev):

   -21.8293 -13.1149  -6.9435  -6.5619  -6.5473  -5.9559  -5.8040  -5.4526
    -5.3153  -5.0676  -4.7917  -4.7423  -4.6885  -4.6438  -4.6092  -4.5074
    -4.4954  -4.3980  -4.3872  -4.2877  -4.2789  -4.2729  -4.2414  -4.2226
    -4.2128  -4.2059  -4.0867  -4.0640  -4.0567  -4.0282  -4.0120  -3.9413
    -3.8536  -3.8106  -3.7616  -3.6854  -3.6699  -3.6538  -3.6396  -3.6335
    -3.5584  -3.5290  -3.4816  -3.4195  -3.3169  -3.2263  -3.2159  -3.1739
    -3.0933  -3.0638  -3.0261  -2.9974  -2.8983  -2.8483  -2.8359  -2.8103
    -2.7850  -2.7442  -2.7175  -2.6957  -2.6418  -2.6168  -2.5992  -2.5871
    -2.5700  -2.5614  -2.5365  -2.5042  -2.4761  -2.3904  -2.3482  -2.3074
    -2.2876  -2.2002  -2.1654  -2.1448  -2.1295  -2.0964  -2.0685  -2.0493
    -2.0050  -1.9774  -1.9520  -1.9440  -1.9183  -1.8806  -1.8417  -1.8227
    -1.7987  -1.7474  -1.7269  -1.7089  -1.6529  -1.6075  -1.5680  -1.5444
    -1.5251  -1.5058  -1.4772  -1.4615  -1.4482  -1.4260  -1.4129  -1.3970
    -1.3674  -1.3608  -1.3292  -1.3204  -1.2976  -1.2937  -1.2849  -1.2589
    -1.2461  -1.2243  -1.1886  -1.1519  -1.0075  -0.9568  -0.8983  -0.8823
    -0.8447  -0.7756  -0.7682  -0.7387  -0.7129  -0.6900  -0.6616  -0.6470
    -0.6206  -0.5792  -0.5558  -0.5168  -0.4889  -0.4709  -0.4039  -0.3846
    -0.3445  -0.2855  -0.2051  -0.1646  -0.1461  -0.1103  -0.0868  -0.0620
    -0.0187   0.0127   0.0282   0.0359   0.0659   0.0777   0.1091   0.1675
     0.1924   0.2371   0.2573   0.2749   0.2825   0.3110   0.3210   0.3980
     0.4552   0.5007   0.5699   0.6349   0.6782   0.7176   0.7288   0.7487
     0.8470   0.8614   0.8802   0.9418   1.0101   1.0238   1.0479   1.0751
     1.0813   1.1012   1.1136   1.1550   1.1646   1.2323   1.2430   1.2528
     1.2791   1.2965   1.3051   1.3213   1.3711   1.4756   1.4830   1.5117
     1.5137   1.5277   1.5790   1.6127   1.7023   1.8343   2.1415   2.6636
     2.6656   2.8687   2.9304   3.0418   3.0543   3.0952   3.2351   3.6580
     3.6693   3.7085   4.1268   4.1448   4.2051   4.2733   4.2851   4.4593
     4.5711   4.6736   4.8254   4.9248   5.0826   5.1327   5.3992   5.7167
     5.7527   5.8035

     the Fermi energy is     1.2881 ev

!    total energy              =  -27835.89207285 Ry

     total all-electron energy =  -1326947.032579 Ry
     estimated scf accuracy    <       0.00000045 Ry
     smearing contrib. (-TS)   =      -0.00021004 Ry
     internal energy E=F+TS    =  -27835.89186282 Ry

     The total energy is F=E-TS. E is the sum of the following terms:
     one-electron contribution =  -31033.78663569 Ry
     hartree contribution      =   15813.20424421 Ry
     xc contribution           =    -907.90287057 Ry
     ewald contribution        =   13789.80485298 Ry
     one-center paw contrib.   =  -25497.21145375 Ry

     convergence has been achieved in  19 iterations

[...]

     Forces acting on atoms (cartesian axes, Ry/au):

     atom    1 type  1   force =    -0.00023317    0.00017679   -0.00822844
     atom    2 type  1   force =    -0.00085690    0.00003842   -0.00361746
     atom    3 type  1   force =     0.00088023   -0.00005753   -0.00369141
     atom    4 type  1   force =    -0.00032395   -0.00040207   -0.00332031
     atom    5 type  1   force =    -0.00005349    0.00015657   -0.00364578
     atom    6 type  1   force =     0.00036429   -0.00041889   -0.00339943
     atom    7 type  1   force =     0.00024552    0.00102639   -0.00351885
     atom    8 type  1   force =    -0.00029780    0.00096301   -0.00343433
     atom    9 type  1   force =     0.00000932    0.00016546   -0.00324406
     atom   10 type  1   force =     0.00123118    0.00041046    0.00289030
     atom   11 type  1   force =    -0.00027220    0.00241862    0.00935995
     atom   12 type  1   force =    -0.00076912    0.00027287    0.00222018
     atom   13 type  1   force =     0.00189942   -0.00192514    0.00876937
     atom   14 type  1   force =    -0.00186921   -0.00159416    0.00847843
     atom   15 type  1   force =     0.00009429   -0.00018134    0.00210248
     atom   16 type  1   force =     0.00014593   -0.00003383   -0.00097870
     atom   17 type  1   force =     0.00020968   -0.00035653    0.00181511
     atom   18 type  1   force =    -0.00018632   -0.00043130    0.00164270
     atom   19 type  1   force =    -0.00016520   -0.00008724   -0.00019278
     atom   20 type  1   force =     0.00009439    0.00002621    0.00001246
     atom   21 type  1   force =    -0.00004174    0.00004242   -0.00001838
     atom   22 type  1   force =    -0.00003876   -0.00010238   -0.00031922
     atom   23 type  1   force =     0.00007255   -0.00004346   -0.00012584
     atom   24 type  1   force =    -0.00006028   -0.00005596   -0.00017809
     atom   25 type  1   force =    -0.00000512    0.00008086   -0.00026726
     atom   26 type  1   force =     0.00001054   -0.00019302   -0.00029544
     atom   27 type  1   force =    -0.00004740    0.00000425   -0.00055139
     atom   28 type  1   force =     0.00006032   -0.00006825    0.00022370
     atom   29 type  1   force =    -0.00004933    0.00005634    0.00005656
     atom   30 type  1   force =    -0.00008739   -0.00001850    0.00024966
     atom   31 type  1   force =     0.00015600   -0.00006950   -0.00007727
     atom   32 type  1   force =    -0.00019242   -0.00036741   -0.00001906
     atom   33 type  1   force =     0.00003887    0.00006022   -0.00006980
     atom   34 type  1   force =     0.00016794   -0.00005937    0.00001651
     atom   35 type  1   force =     0.00001769   -0.00008804   -0.00008999
     atom   36 type  1   force =    -0.00013975    0.00004673    0.00032682
     atom   37 type  2   force =     0.00135536   -0.00578510    0.00496623
     atom   38 type  2   force =    -0.00085486    0.00211078   -0.00033357
     atom   39 type  3   force =     0.00024193    0.00000775   -0.00004927
     atom   40 type  4   force =    -0.00075102    0.00427489   -0.00346432

     Total force =     0.009873     Total SCF correction =     0.001805
     SCF correction compared to forces is large: reduce conv_thr to get better values

[...]

     negative rho (up, down):  1.467E-02 0.000E+00

     negative rho (up, down):  1.467E-02 0.000E+00
 BEEFens 2000 ensemble energies
             -0.607704099608133E+02
             -0.361931758575540E+01
             -0.158601101536668E+02
              0.430126350770854E+02
             -0.221575337557540E+02
             -0.205683872497501E+02
             -0.352881717608420E+02
             -0.866391379352802E+02
             -0.466076870608555E+02
             -0.473677421613427E+02
             -0.369881747306995E+02
              0.228365394921153E+01
              0.406973929898248E+01
              0.764429423119282E+01
              0.265969814697499E+01
              0.475683089372654E+02
             -0.209228541895294E+02
             -0.230706010238116E+02
              0.193113893957743E+02
             -0.112582274845048E+03
              0.537288419640545E+02
             -0.290301537535547E+02
             -0.334546685846714E+01
             -0.114372683258600E+02
             -0.885689975372327E+01
             -0.465459787161268E+01
              0.884296232236351E+02
             -0.187235705561357E+02
             -0.902381291806830E+01
             -0.519202190317898E+02
              0.817023570411004E+02
             -0.187738531966763E+02
             -0.375546960333073E+02
              0.249795075576944E+02
             -0.285018722055071E+01
              0.164183565566225E+02
             -0.486852857817047E+01
              0.108391891653658E+02
              0.288569465670842E+02
             -0.103454935333133E+03
              0.559323037650593E+02
              0.142591670755148E+02
             -0.171477102009806E+01
             -0.362191027696457E+02
              0.123344007609460E+02
             -0.147012943652134E+02
              0.398972440184103E+02
              0.365527274342907E+02
             -0.308711862589079E+02
             -0.275527147984362E+02
             -0.328786037183181E+02
             -0.352691515598082E+02
              0.136383933747542E+02
             -0.491696877356050E+02
              0.115768252192453E+02
              0.624199462143340E+02
              0.636322710589068E+02
              0.356550711884623E+02
              0.154445979873513E+02
              0.270900015022180E+02
[...]
             -0.707268675590217E+02
             -0.898359022292311E+00
             -0.247089037103573E+01
             -0.883726370723161E+01
             -0.180312735017111E+01
             -0.653957451177606E+02
             -0.211153226100021E+02
              0.539612602712412E+01
              0.899929648105569E+01
              0.469504891613510E+02
             -0.398211982377657E+02
              0.658543493296966E+02
             -0.425897495041187E+02
              0.210614073833740E+02
              0.350830720281646E+02

 BEEF-vdW xc energy contributions
           1 :   -784.014395027581
           2 :    720.225750537362
           3 :   -609.833873967169
           4 :    479.914473528111
           5 :   -357.917767951515
           6 :    263.620614057568
           7 :   -204.673258464679
           8 :    176.583948680196
           9 :   -166.718514822029
          10 :    160.434396634154
          11 :   -146.861408118689
          12 :    122.150039491667
          13 :   -89.3352561997240
          14 :    55.4424867863187
          15 :   -27.5125066253537
          16 :    9.32960739256191
          17 :  -0.121376573356883
          18 :   -4.49872095855153
          19 :    10.0481429122480
          20 :   -20.4588168236166
          21 :    36.3740312473457
          22 :   -55.1372284908049
          23 :    72.3095362461440
          24 :   -83.8870760523760
          25 :    88.1296274676250
          26 :   -86.1959604638664
          27 :    81.3816160656251
          28 :   -77.4193999912501
          29 :    76.7082870027905
          30 :   -79.3091257211941
          31 :   -85.9111308531815
          32 :   -65.8296367192704

     Writing output data file ./pwscf.save/

     General routines

     Parallel routines

   This run was terminated on:  14:14:58   4Jan2023

   JOB DONE.