     Program PWSCF v.6.7MaX starts on 21Dec2022 at 12:56:26

     Reading input from co-ensemble.in
Warning: card &CELL ignored
Warning: card / ignored

     Current dimensions of program PWSCF are:
     Max number of different atomic species (ntypx) = 10
     Max number of k-points (npk) =  40000
     Max angular momentum in pseudopotentials (lmaxx) =  3
     file Pt.pbe-n-kjpaw_psl.1.0.0.UPF: wavefunction(s)  6S 5D renormalized
     file C.pbe-n-kjpaw_psl.1.0.0.UPF: wavefunction(s)  2S 2P renormalized
     file O.pbe-nl-kjpaw_psl.1.0.0.UPF: wavefunction(s)  2S 2P renormalized

     IMPORTANT: XC functional enforced from input :
     Exchange-correlation= BEEF-VDW
                           (   1   4  43  14   2   0   0)
     Any further DFT definition will be discarded
     Please, verify this is what you really want

     Subspace diagonalization in iterative solution of the eigenvalue problem:
     a serial algorithm will be used

     bravais-lattice index     =            0
     lattice parameter (alat)  =      16.0349  a.u.
     unit-cell volume          =   11160.3576 (a.u.)^3
     number of atoms/cell      =           38
     number of atomic types    =            3
     number of electrons       =       370.00
     number of Kohn-Sham states=          222
     kinetic-energy cutoff     =      60.0000  Ry
     charge density cutoff     =     240.0000  Ry
     scf convergence threshold =      1.0E-06
     mixing beta               =       0.7000
     number of iterations used =            8  local-TF  mixing
     Exchange-correlation= BEEF-VDW
                           (   1   4  43  14   2   0   0)

     celldm(1)=  16.034858  celldm(2)=   0.000000  celldm(3)=   0.000000
     celldm(4)=   0.000000  celldm(5)=   0.000000  celldm(6)=   0.000000

     crystal axes: (cart. coord. in units of alat)
               a(1) = (   1.000000   0.000000   0.000000 )
               a(2) = (   0.500000   0.866025   0.000000 )
               a(3) = (   0.000000   0.000000   3.125735 )

     reciprocal axes: (cart. coord. in units 2 pi/alat)
               b(1) = (  1.000000 -0.577350  0.000000 )
               b(2) = (  0.000000  1.154701  0.000000 )
               b(3) = (  0.000000  0.000000  0.319925 )

     PseudoPot. # 1 for Pt read from file:
     /users/bkreitz1/quantum-espresso/potentials/Pt.pbe-n-kjpaw_psl.1.0.0.UPF
     MD5 check sum: 04dc8a03c51ece93fc7b5889c2958091
     Pseudo is Projector augmented-wave + core cor, Zval = 10.0
     Generated using 'atomic' code by A. Dal Corso  v.6.7MaX
     Shape of augmentation charge: PSQ
     Using radial grid of 1277 points,  6 beta functions with:
                l(1) =   0
                l(2) =   0
                l(3) =   1
                l(4) =   1
                l(5) =   2
                l(6) =   2
     Q(r) pseudized with 0 coefficients

     PseudoPot. # 2 for C  read from file:
     /users/bkreitz1/quantum-espresso/potentials/C.pbe-n-kjpaw_psl.1.0.0.UPF
     MD5 check sum: a169b0ebad56f5ec0d79c4633f80bf22
     Pseudo is Projector augmented-wave + core cor, Zval =  4.0
     Generated using 'atomic' code by A. Dal Corso  v.6.7MaX
     Shape of augmentation charge: PSQ
     Using radial grid of 1073 points,  4 beta functions with:
                l(1) =   0
                l(2) =   0
                l(3) =   1
                l(4) =   1
     Q(r) pseudized with 0 coefficients

     PseudoPot. # 3 for O  read from file:
     /users/bkreitz1/quantum-espresso/potentials/O.pbe-nl-kjpaw_psl.1.0.0.UPF
     MD5 check sum: eef08af8b58d9ec80f8fdb78829eb7cf
     Pseudo is Projector augmented-wave + core cor, Zval =  6.0
     Generated using 'atomic' code by A. Dal Corso  v.6.7MaX
     Shape of augmentation charge: PSQ
     Using radial grid of 1095 points,  4 beta functions with:
                l(1) =   0
                l(2) =   0
                l(3) =   1
                l(4) =   1
     Q(r) pseudized with 0 coefficients

     atomic species   valence    mass     pseudopotential
        Pt            10.00   195.08400     Pt( 1.00)
        C              4.00    12.01100     C ( 1.00)
        O              6.00    15.99900     O ( 1.00)

     No symmetry found

   Cartesian axes

     site n.     atom                  positions (alat units)
         1           Pt  tau(   1) = (   0.0000000   0.0000000   1.0017346  )
         2           Pt  tau(   2) = (   0.3333333   0.0000000   1.0017346  )
         3           Pt  tau(   3) = (   0.6666667   0.0000000   1.0017346  )
         4           Pt  tau(   4) = (   0.1666667   0.2886751   1.0017346  )
         5           Pt  tau(   5) = (   0.5000000   0.2886751   1.0017346  )
         6           Pt  tau(   6) = (   0.8333333   0.2886751   1.0017346  )
         7           Pt  tau(   7) = (   0.3333333   0.5773503   1.0017346  )
         8           Pt  tau(   8) = (   0.6666667   0.5773503   1.0017346  )
         9           Pt  tau(   9) = (   1.0000000   0.5773503   1.0017346  )
        10           Pt  tau(  10) = (   0.1666667   0.0962250   1.2739001  )
        11           Pt  tau(  11) = (   0.5000000   0.0962250   1.2739001  )
        12           Pt  tau(  12) = (   0.8333333   0.0962250   1.2739001  )
        13           Pt  tau(  13) = (   0.3333333   0.3849002   1.2739001  )
        14           Pt  tau(  14) = (   0.6666667   0.3849002   1.2739001  )
        15           Pt  tau(  15) = (   1.0000000   0.3849002   1.2739001  )
        16           Pt  tau(  16) = (   0.5000000   0.6735753   1.2739001  )
        17           Pt  tau(  17) = (   0.8333333   0.6735753   1.2739001  )
        18           Pt  tau(  18) = (   1.1666667   0.6735753   1.2739001  )
        19           Pt  tau(  19) = (   0.0000201   0.1915356   1.5455325  )
        20           Pt  tau(  20) = (   0.3317194   0.1915176   1.5456294  )
        21           Pt  tau(  21) = (   0.6658860   0.1917813   1.5419056  )
        22           Pt  tau(  22) = (   0.1659135   0.4789699   1.5449141  )
        23           Pt  tau(  23) = (   0.4990287   0.4807874   1.5419079  )
        24           Pt  tau(  24) = (   0.8328497   0.4808481   1.5418204  )
        25           Pt  tau(  25) = (   0.3339413   0.7701482   1.5450037  )
        26           Pt  tau(  26) = (   0.6658808   0.7702802   1.5455301  )
        27           Pt  tau(  27) = (   0.9977683   0.7702124   1.5449189  )
        28           Pt  tau(  28) = (  -0.0052925  -0.0030645   1.8300758  )
        29           Pt  tau(  29) = (   0.3338095  -0.0025897   1.8304689  )
        30           Pt  tau(  30) = (   0.6644795  -0.0008696   1.8171370  )
        31           Pt  tau(  31) = (   0.1646692   0.2903782   1.8304601  )
        32           Pt  tau(  32) = (   0.5005472   0.2889847   1.8160094  )
        33           Pt  tau(  33) = (   0.8289135   0.2891897   1.8157994  )
        34           Pt  tau(  34) = (   0.3314980   0.5758719   1.8171137  )
        35           Pt  tau(  35) = (   0.6649091   0.5732546   1.8158017  )
        36           Pt  tau(  36) = (   0.9980103   0.5761865   1.8171225  )
        37           C   tau(  37) = (   0.1613642   0.0931588   1.9861657  )
        38           O   tau(  38) = (   0.1621990   0.0936548   2.1265251  )

     number of k points=    13  Marzari-Vanderbilt smearing, width (Ry)=  0.0200
                       cart. coord. in units 2pi/alat
        k(    1) = (   0.0000000   0.0000000   0.0000000), wk =   0.0800000
        k(    2) = (   0.0000000   0.2309401   0.0000000), wk =   0.1600000
        k(    3) = (   0.0000000   0.4618802   0.0000000), wk =   0.1600000
        k(    4) = (   0.2000000  -0.1154701   0.0000000), wk =   0.1600000
        k(    5) = (   0.2000000   0.1154701   0.0000000), wk =   0.1600000
        k(    6) = (   0.2000000   0.3464102   0.0000000), wk =   0.1600000
        k(    7) = (   0.2000000  -0.5773503   0.0000000), wk =   0.1600000
        k(    8) = (   0.2000000  -0.3464102   0.0000000), wk =   0.1600000
        k(    9) = (   0.4000000  -0.2309401   0.0000000), wk =   0.1600000
        k(   10) = (   0.4000000  -0.0000000   0.0000000), wk =   0.1600000
        k(   11) = (   0.4000000   0.2309401   0.0000000), wk =   0.1600000
        k(   12) = (   0.4000000  -0.6928203   0.0000000), wk =   0.1600000
        k(   13) = (   0.4000000  -0.4618802   0.0000000), wk =   0.1600000

     Check: negative core charge=   -0.000001

     Initial potential from superposition of free atoms

     starting charge  369.99385, renormalised to  370.00000

     negative rho (up, down):  1.249E-02 0.000E+00

     %%%%%%%%%%%%%%%%%%%%%%%%%%%%%%%%%%%%%%%%%%%%%%%%%%%%%%%%%%%%%%%%%%%%%%%%
     %                                                                      %
     % You are using vdW-DF, which was implemented by the Thonhauser group. %
     % Please cite the following two papers that made this development      %
     % possible and the two reviews that describe the various versions:     %
     %                                                                      %
     %   T. Thonhauser et al., PRL 115, 136402 (2015).                      %
     %   T. Thonhauser et al., PRB 76, 125112 (2007).                       %
     %   K. Berland et al., Rep. Prog. Phys. 78, 066501 (2015).             %
     %   D.C. Langreth et al., J. Phys.: Condens. Matter 21, 084203 (2009). %
     %                                                                      %
     %                                                                      %
     % If you are calculating the stress with vdW-DF, please also cite:     %
     %                                                                      %
     %   R. Sabatini et al., J. Phys.: Condens. Matter 24, 424209 (2012).   %
     %                                                                      %
     %%%%%%%%%%%%%%%%%%%%%%%%%%%%%%%%%%%%%%%%%%%%%%%%%%%%%%%%%%%%%%%%%%%%%%%%

     Starting wfcs are  332 randomized atomic wfcs
     Checking if some PAW data can be deallocated...

     Self-consistent Calculation

     iteration #  1     ecut=    60.00 Ry     beta= 0.70
     Davidson diagonalization with overlap
     ethr =  1.00E-02,  avg # of iterations =  2.0

     Threshold (ethr) on eigenvalues was too large:
     Diagonalizing with lowered threshold

     Davidson diagonalization with overlap
     ethr =  6.60E-04,  avg # of iterations =  3.1

[...]

     total energy              =  -27815.43522819 Ry
     estimated scf accuracy    <       2.65591398 Ry

[...]

     iteration #  7     ecut=    60.00 Ry     beta= 0.70
     Davidson diagonalization with overlap
     c_bands:  1 eigenvalues not converged
     c_bands:  1 eigenvalues not converged
     c_bands:  1 eigenvalues not converged
     ethr =  1.90E-06,  avg # of iterations = 11.5

[...]

     iteration # 10     ecut=    60.00 Ry     beta= 0.70
     Davidson diagonalization with overlap
     c_bands:  1 eigenvalues not converged
     ethr =  1.02E-07,  avg # of iterations =  5.2

[...]

     total energy              =  -27815.80208665 Ry
     estimated scf accuracy    <       0.00000141 Ry

     iteration # 19     ecut=    60.00 Ry     beta= 0.70
     Davidson diagonalization with overlap
     ethr =  3.82E-10,  avg # of iterations =  1.8

[...]

     End of self-consistent calculation

          k = 0.0000 0.0000 0.0000 ( 87759 PWs)   bands (ev):

   -20.7248  -8.6963  -7.0775  -5.7837  -5.0411  -4.8595  -4.8462  -4.7340
    -4.7068  -4.7022  -4.6993  -4.6676  -4.5661  -4.5660  -4.4669  -4.1542
    -4.1446  -4.1433  -4.0886  -4.0827  -4.0808  -3.6979  -3.6978  -3.6873
    -3.6018  -3.6004  -3.5987  -3.4761  -3.4740  -3.4736  -3.3944  -3.3897
    -3.3657  -3.2565  -3.2561  -3.2506  -3.2199  -3.2152  -3.2127  -3.1963
    -3.1904  -3.1896  -3.1432  -3.1422  -2.9555  -2.6293  -2.6286  -2.5959
    -2.5912  -2.5800  -2.5797  -2.5303  -2.5288  -2.5271  -2.3915  -2.3814
    -2.3813  -2.2660  -2.2659  -1.8579  -1.8534  -1.8420  -1.8017  -1.7985
    -1.7547  -1.7431  -1.6540  -1.6485  -1.6236  -1.6236  -1.6215  -1.6100
    -1.6077  -1.5661  -1.5636  -1.5636  -1.5516  -1.5513  -1.5166  -1.5035
    -1.5009  -1.4405  -1.4360  -1.4230  -1.3982  -1.3881  -1.3862  -1.2235
    -1.2170  -1.2136  -1.1842  -1.1768  -1.1646  -1.1641  -1.1521  -1.0842
    -1.0835  -1.0230  -1.0214  -1.0187  -0.9698  -0.9691  -0.9537  -0.9338
    -0.9332  -0.8023  -0.7954  -0.7863  -0.7694  -0.7663  -0.7594  -0.5870
    -0.3416  -0.3298  -0.2789  -0.2758  -0.2718  -0.2609  -0.2588  -0.2460
    -0.2260  -0.2131  -0.2106  -0.1223  -0.1220  -0.0640  -0.0060  -0.0038
     0.0094   0.0185   0.0193   0.0938   0.1060   0.1990   0.2033   0.2094
     0.2277   0.3679   0.3781   0.4379   0.4735   0.4761   0.4822   0.5245
     0.5313   0.6577   0.6673   0.6677   0.7075   0.7093   0.7164   0.7881
     0.7965   0.8119   0.8343   0.8800   0.8860   0.8990   0.9023   0.9249
     0.9258   0.9293   0.9295   0.9545   0.9547   0.9691   1.0439   1.0441
     1.0595   1.0626   1.0661   1.1335   1.1339   1.1357   1.1459   1.1482
     1.1843   1.1844   1.2232   1.2719   1.2808   1.2827   1.2870   1.2873
     1.3247   1.3359   1.3710   1.3720   1.4007   1.4014   1.4181   1.4311
     1.5820   1.5907   1.6914   1.6947   1.6979   1.7273   1.7288   1.7445
     2.1807   2.4865   2.4919   2.5667   2.6161   2.6198   2.6417   4.3485
     4.3696   4.4610   4.9340   4.9397   4.9489   5.6613   5.6759   6.2850
     6.5253   6.5293   6.5548   6.7025   6.7205   6.7215

[...]

          k = 0.4000-0.4619 0.0000 ( 87602 PWs)   bands (ev):

   -20.7248  -8.6636  -6.1678  -6.1140  -5.5477  -5.0565  -5.0113  -4.7915
    -4.6648  -4.5890  -4.3533  -4.3041  -4.2319  -4.1841  -4.0903  -4.0749
    -3.9809  -3.9738  -3.8899  -3.8745  -3.8482  -3.8294  -3.8123  -3.7850
    -3.7140  -3.6527  -3.6477  -3.6435  -3.6077  -3.5817  -3.5226  -3.4149
    -3.3959  -3.3100  -3.2768  -3.2545  -3.2408  -3.2070  -3.1885  -3.1153
    -3.0329  -3.0101  -2.9629  -2.8285  -2.8183  -2.7638  -2.6865  -2.6603
    -2.6209  -2.5921  -2.5063  -2.4665  -2.4443  -2.4183  -2.3996  -2.3518
    -2.3361  -2.3067  -2.2381  -2.2283  -2.2084  -2.1934  -2.1789  -2.1643
    -2.1312  -2.1153  -2.0847  -1.9967  -1.9749  -1.9191  -1.8814  -1.8421
    -1.7733  -1.7587  -1.7276  -1.6994  -1.6771  -1.6703  -1.6300  -1.6177
    -1.5748  -1.5533  -1.5118  -1.4801  -1.4369  -1.3982  -1.3681  -1.3440
    -1.3350  -1.3259  -1.2925  -1.2136  -1.1677  -1.1645  -1.1497  -1.1078
    -1.0810  -1.0587  -1.0550  -1.0439  -1.0346  -1.0198  -1.0057  -0.9470
    -0.9399  -0.9271  -0.9108  -0.9002  -0.8808  -0.8795  -0.8662  -0.8260
    -0.7874  -0.6513  -0.5971  -0.5480  -0.5213  -0.4815  -0.4331  -0.4098
    -0.3992  -0.3515  -0.3331  -0.2947  -0.2855  -0.2828  -0.2311  -0.1956
    -0.1666  -0.1532  -0.1315  -0.0869  -0.0193  -0.0077   0.0240   0.0989
     0.1410   0.2214   0.2363   0.2717   0.2980   0.3285   0.3648   0.3907
     0.4052   0.4102   0.4350   0.4425   0.5094   0.5418   0.5685   0.5834
     0.5859   0.6363   0.6468   0.6909   0.6940   0.8081   0.8448   0.9037
     0.9409   1.0053   1.0748   1.1058   1.1181   1.1917   1.2005   1.2394
     1.2911   1.3115   1.3589   1.4068   1.4163   1.4418   1.4504   1.4689
     1.5049   1.5355   1.6060   1.6090   1.6252   1.6375   1.6421   1.6697
     1.6760   1.7518   1.8098   1.8575   1.8744   1.8919   1.9002   1.9525
     1.9813   2.0598   2.1495   2.7382   2.9816   3.0562   3.0945   3.2459
     3.3289   3.3927   3.4110   3.6931   3.9610   3.9717   4.1651   4.2200
     4.4074   4.5546   4.5855   4.7728   4.8810   4.9312   5.0455   5.0636
     5.2787   5.4621   5.5228   5.8544   6.0425   6.1734

     the Fermi energy is     1.6628 ev

!    total energy              =  -27815.80208646 Ry

     total all-electron energy =  -1326869.178500 Ry
     estimated scf accuracy    <       0.00000050 Ry
     smearing contrib. (-TS)   =       0.00390854 Ry
     internal energy E=F+TS    =  -27815.80599499 Ry

     The total energy is F=E-TS. E is the sum of the following terms:
     one-electron contribution =  -26076.74866531 Ry
     hartree contribution      =   13338.22818625 Ry
     xc contribution           =    -902.44275007 Ry
     ewald contribution        =   11315.82906868 Ry
     one-center paw contrib.   =  -25490.67183454 Ry

     convergence has been achieved in  19 iterations

[...]

     Forces acting on atoms (cartesian axes, Ry/au):

     atom    1 type  1   force =    -0.00019474   -0.00009616   -0.00312462
     atom    2 type  1   force =     0.00043504   -0.00013444   -0.00313433
     atom    3 type  1   force =     0.00015081    0.00123151   -0.00367746
     atom    4 type  1   force =     0.00008855    0.00043238   -0.00312674
     atom    5 type  1   force =     0.00014942    0.00007141   -0.00367979
     atom    6 type  1   force =     0.00013424    0.00009285   -0.00371646
     atom    7 type  1   force =     0.00112949   -0.00047910   -0.00366361
     atom    8 type  1   force =     0.00015419    0.00006171   -0.00372839
     atom    9 type  1   force =    -0.00101939   -0.00058673   -0.00382503
     atom   10 type  1   force =    -0.00023702   -0.00011913    0.00951247
     atom   11 type  1   force =    -0.00075192   -0.00211085    0.00437992
     atom   12 type  1   force =     0.00020886   -0.00214058    0.00443168
     atom   13 type  1   force =    -0.00220877    0.00038683    0.00437695
     atom   14 type  1   force =    -0.00022347   -0.00014210    0.00146222
     atom   15 type  1   force =     0.00171798    0.00049925    0.00423436
     atom   16 type  1   force =    -0.00176387    0.00126157    0.00442562
     atom   17 type  1   force =     0.00131001    0.00123623    0.00423029
     atom   18 type  1   force =    -0.00044006   -0.00024716   -0.00256380
     atom   19 type  1   force =    -0.00007476   -0.00004490   -0.00016861
     atom   20 type  1   force =    -0.00006926   -0.00005410   -0.00017872
     atom   21 type  1   force =    -0.00001242   -0.00001569   -0.00001173
     atom   22 type  1   force =    -0.00007566   -0.00012254   -0.00012625
     atom   23 type  1   force =     0.00000006   -0.00003890   -0.00002822
     atom   24 type  1   force =    -0.00005053   -0.00005334   -0.00000451
     atom   25 type  1   force =    -0.00000752    0.00002827   -0.00013911
     atom   26 type  1   force =    -0.00005657   -0.00003377   -0.00015166
     atom   27 type  1   force =    -0.00014455    0.00003451   -0.00011780
     atom   28 type  1   force =     0.00014559    0.00010188    0.00023047
     atom   29 type  1   force =    -0.00012417    0.00000720    0.00020379
     atom   30 type  1   force =     0.00001347   -0.00005643    0.00025561
     atom   31 type  1   force =    -0.00006452   -0.00013487    0.00021402
     atom   32 type  1   force =    -0.00013664   -0.00009233    0.00018857
     atom   33 type  1   force =    -0.00005031   -0.00011511    0.00023437
     atom   34 type  1   force =    -0.00005526    0.00005985    0.00030646
     atom   35 type  1   force =    -0.00011155    0.00000827    0.00024100
     atom   36 type  1   force =    -0.00006157   -0.00002018    0.00024539
     atom   37 type  2   force =     0.00230751    0.00133664   -0.00312503
     atom   38 type  3   force =    -0.00001073   -0.00001193   -0.00088130

     Total force =     0.004302     Total SCF correction =     0.001700
     SCF correction compared to forces is large: reduce conv_thr to get better values

[...]

     negative rho (up, down):  1.335E-02 0.000E+00

     negative rho (up, down):  1.335E-02 0.000E+00
 BEEFens 2000 ensemble energies
             -0.603432986476642E+02
             -0.360607686939156E+01
             -0.157813152029127E+02
              0.427394809730538E+02
             -0.220259009138840E+02
             -0.204742693952716E+02
             -0.349683750733877E+02
             -0.860117200283565E+02
             -0.464024693635240E+02
             -0.471645739465436E+02
             -0.367553594738845E+02
              0.222399064429143E+01
              0.403599729425184E+01
              0.770134371297200E+01
              0.263606996451179E+01
              0.472639349478404E+02
             -0.208126141971723E+02
             -0.230340597373497E+02
              0.191542015644037E+02
             -0.111870652672457E+03
              0.533658814176009E+02
             -0.289249769706406E+02
             -0.331468944146954E+01
             -0.113884982518450E+02
             -0.889315121176617E+01
             -0.463350893090177E+01
              0.878708793857097E+02
             -0.185478793861826E+02
             -0.897762985935219E+01
             -0.515479223040310E+02
              0.813005471784759E+02
             -0.187750600561793E+02
             -0.372983482574185E+02
              0.248774843230477E+02
             -0.283735261962386E+01
              0.162142671775163E+02
             -0.489071828021736E+01
              0.108577693436077E+02
              0.285857898007568E+02
             -0.102838004442381E+03
              0.555803366325719E+02
              0.141707979342495E+02
             -0.161291871950937E+01
             -0.360357240708409E+02
              0.122558118141002E+02
             -0.145768378463130E+02
              0.395719529072979E+02
              0.363341102164286E+02
             -0.307733962246671E+02
             -0.273480746421068E+02
             -0.326838562325725E+02
             -0.350180415709390E+02
              0.134661214748737E+02
             -0.488387609444280E+02
              0.114645824340981E+02
              0.620133886646515E+02
              0.631296255983174E+02
              0.354565688475685E+02
              0.153438040856406E+02
              0.268607101610627E+02
[...]
             -0.702350786299676E+02
             -0.945675006896067E+00
             -0.247117278369329E+01
             -0.876692830575655E+01
             -0.182480878433165E+01
             -0.649844055118031E+02
             -0.210872707689377E+02
              0.529639426223108E+01
              0.888888845198341E+01
              0.466235057684541E+02
             -0.395409227189595E+02
              0.655431825294476E+02
             -0.423468824335678E+02
              0.208694025509319E+02
              0.347959188383595E+02

 BEEF-vdW xc energy contributions
           1 :   -779.516523351692
           2 :    716.540148468432
           3 :   -607.362816512242
           4 :    478.615146920659
           5 :   -357.492876347219
           6 :    263.703648628158
           7 :   -204.944354758821
           8 :    176.829047249311
           9 :   -166.842306664816
          10 :    160.438423422201
          11 :   -146.802055976029
          12 :    122.094663462836
          13 :   -89.3331864312102
          14 :    55.5167114605251
          15 :   -27.6600249977394
          16 :    9.52777516767924
          17 :  -0.338301071450019
          18 :   -4.29407958036995
          19 :    9.87733577183110
          20 :   -20.3271777559402
          21 :    36.2698250138415
          22 :   -55.0370873723450
          23 :    72.1916675598900
          24 :   -83.7476632616563
          25 :    87.9892692653522
          26 :   -86.0904597014033
          27 :    81.3455650442475
          28 :   -77.4711034498720
          29 :    76.8374320801378
          30 :   -79.4710472917558
          31 :   -85.2957190004149
          32 :   -65.4499858627182

     Writing output data file ./pwscf.save/

     General routines

     Parallel routines

   This run was terminated on:  16:15:23  21Dec2022

   JOB DONE.