     Program PWSCF v.6.7MaX starts on 16May2022 at  9:36:21

     Reading input from co2ads_ensemble.in
Warning: card &CELL ignored
Warning: card / ignored

     Current dimensions of program PWSCF are:
     Max number of different atomic species (ntypx) = 10
     Max number of k-points (npk) =  40000
     Max angular momentum in pseudopotentials (lmaxx) =  3
     file Pt.pbe-n-kjpaw_psl.1.0.0.UPF: wavefunction(s)  6S 5D renormalized
     file C.pbe-n-kjpaw_psl.1.0.0.UPF: wavefunction(s)  2S 2P renormalized
     file O.pbe-nl-kjpaw_psl.1.0.0.UPF: wavefunction(s)  2S 2P renormalized

     IMPORTANT: XC functional enforced from input :
     Exchange-correlation= BEEF-VDW
                           (   1   4  43  14   2   0   0)
     Any further DFT definition will be discarded
     Please, verify this is what you really want

     Subspace diagonalization in iterative solution of the eigenvalue problem:
     a serial algorithm will be used

     bravais-lattice index     =            0
     lattice parameter (alat)  =      16.0349  a.u.
     unit-cell volume          =   11981.3889 (a.u.)^3
     number of atoms/cell      =           39
     number of atomic types    =            3
     number of electrons       =       376.00
     number of Kohn-Sham states=          226
     kinetic-energy cutoff     =      60.0000  Ry
     charge density cutoff     =     240.0000  Ry
     scf convergence threshold =      1.0E-06
     mixing beta               =       0.7000
     number of iterations used =            8  local-TF  mixing
     Exchange-correlation= BEEF-VDW
                           (   1   4  43  14   2   0   0)

     celldm(1)=  16.034858  celldm(2)=   0.000000  celldm(3)=   0.000000
     celldm(4)=   0.000000  celldm(5)=   0.000000  celldm(6)=   0.000000

     crystal axes: (cart. coord. in units of alat)
               a(1) = (   1.000000   0.000000   0.000000 )
               a(2) = (   0.500000   0.866025   0.000000 )
               a(3) = (   0.000000   0.000000   3.355685 )

     reciprocal axes: (cart. coord. in units 2 pi/alat)
               b(1) = (  1.000000 -0.577350  0.000000 )
               b(2) = (  0.000000  1.154701  0.000000 )
               b(3) = (  0.000000  0.000000  0.298002 )

     PseudoPot. # 1 for Pt read from file:
     /users/bkreitz1/quantum-espresso/potentials/Pt.pbe-n-kjpaw_psl.1.0.0.UPF
     MD5 check sum: 04dc8a03c51ece93fc7b5889c2958091
     Pseudo is Projector augmented-wave + core cor, Zval = 10.0
     Generated using 'atomic' code by A. Dal Corso  v.6.7MaX
     Shape of augmentation charge: PSQ
     Using radial grid of 1277 points,  6 beta functions with:
                l(1) =   0
                l(2) =   0
                l(3) =   1
                l(4) =   1
                l(5) =   2
                l(6) =   2
     Q(r) pseudized with 0 coefficients

     PseudoPot. # 2 for C  read from file:
     /users/bkreitz1/quantum-espresso/potentials/C.pbe-n-kjpaw_psl.1.0.0.UPF
     MD5 check sum: a169b0ebad56f5ec0d79c4633f80bf22
     Pseudo is Projector augmented-wave + core cor, Zval =  4.0
     Generated using 'atomic' code by A. Dal Corso  v.6.7MaX
     Shape of augmentation charge: PSQ
     Using radial grid of 1073 points,  4 beta functions with:
                l(1) =   0
                l(2) =   0
                l(3) =   1
                l(4) =   1
     Q(r) pseudized with 0 coefficients

     PseudoPot. # 3 for O  read from file:
     /users/bkreitz1/quantum-espresso/potentials/O.pbe-nl-kjpaw_psl.1.0.0.UPF
     MD5 check sum: eef08af8b58d9ec80f8fdb78829eb7cf
     Pseudo is Projector augmented-wave + core cor, Zval =  6.0
     Generated using 'atomic' code by A. Dal Corso  v.6.7MaX
     Shape of augmentation charge: PSQ
     Using radial grid of 1095 points,  4 beta functions with:
                l(1) =   0
                l(2) =   0
                l(3) =   1
                l(4) =   1
     Q(r) pseudized with 0 coefficients

     atomic species   valence    mass     pseudopotential
        Pt            10.00   195.08400     Pt( 1.00)
        C              4.00    12.01100     C ( 1.00)
        O              6.00    15.99900     O ( 1.00)

     No symmetry found

   Cartesian axes

     site n.     atom                  positions (alat units)
         1           Pt  tau(   1) = (   0.0000000   0.0000000   1.0017346  )
         2           Pt  tau(   2) = (   0.3333333   0.0000000   1.0017346  )
         3           Pt  tau(   3) = (   0.6666667   0.0000000   1.0017346  )
         4           Pt  tau(   4) = (   0.1666667   0.2886751   1.0017346  )
         5           Pt  tau(   5) = (   0.5000000   0.2886751   1.0017346  )
         6           Pt  tau(   6) = (   0.8333333   0.2886751   1.0017346  )
         7           Pt  tau(   7) = (   0.3333333   0.5773503   1.0017346  )
         8           Pt  tau(   8) = (   0.6666667   0.5773503   1.0017346  )
         9           Pt  tau(   9) = (   1.0000000   0.5773503   1.0017346  )
        10           Pt  tau(  10) = (   0.1666667   0.0962250   1.2739001  )
        11           Pt  tau(  11) = (   0.5000000   0.0962250   1.2739001  )
        12           Pt  tau(  12) = (   0.8333333   0.0962250   1.2739001  )
        13           Pt  tau(  13) = (   0.3333333   0.3849002   1.2739001  )
        14           Pt  tau(  14) = (   0.6666667   0.3849002   1.2739001  )
        15           Pt  tau(  15) = (   1.0000000   0.3849002   1.2739001  )
        16           Pt  tau(  16) = (   0.5000000   0.6735753   1.2739001  )
        17           Pt  tau(  17) = (   0.8333333   0.6735753   1.2739001  )
        18           Pt  tau(  18) = (   1.1666667   0.6735753   1.2739001  )
        19           Pt  tau(  19) = (   0.0000219   0.1924803   1.5425868  )
        20           Pt  tau(  20) = (   0.3333816   0.1924766   1.5425151  )
        21           Pt  tau(  21) = (   0.6666824   0.1924667   1.5424790  )
        22           Pt  tau(  22) = (   0.1667107   0.4811287   1.5425814  )
        23           Pt  tau(  23) = (   0.5000396   0.4811290   1.5425123  )
        24           Pt  tau(  24) = (   0.8333458   0.4811233   1.5425526  )
        25           Pt  tau(  25) = (   0.3333464   0.7698026   1.5425341  )
        26           Pt  tau(  26) = (   0.6667142   0.7698098   1.5425574  )
        27           Pt  tau(  27) = (   1.0000272   0.7698153   1.5425683  )
        28           Pt  tau(  28) = (   0.0000816   0.0000096   1.8163228  )
        29           Pt  tau(  29) = (   0.3334182   0.0000824   1.8164396  )
        30           Pt  tau(  30) = (   0.6667410   0.0001349   1.8163873  )
        31           Pt  tau(  31) = (   0.1667910   0.2886746   1.8164734  )
        32           Pt  tau(  32) = (   0.5000571   0.2886635   1.8165740  )
        33           Pt  tau(  33) = (   0.8332982   0.2886659   1.8164490  )
        34           Pt  tau(  34) = (   0.3334826   0.5773284   1.8164071  )
        35           Pt  tau(  35) = (   0.6666828   0.5772993   1.8164335  )
        36           Pt  tau(  36) = (   1.0000557   0.5773528   1.8163385  )
        37           C   tau(  37) = (   0.4867195   0.2772325   2.3539504  )
        38           O   tau(  38) = (   0.6249666   0.2772344   2.3537339  )
        39           O   tau(  39) = (   0.3484746   0.2772400   2.3543888  )

     number of k points=    13  Marzari-Vanderbilt smearing, width (Ry)=  0.0200
                       cart. coord. in units 2pi/alat
        k(    1) = (   0.0000000   0.0000000   0.0000000), wk =   0.0800000
        k(    2) = (   0.0000000   0.2309401   0.0000000), wk =   0.1600000
        k(    3) = (   0.0000000   0.4618802   0.0000000), wk =   0.1600000
        k(    4) = (   0.2000000  -0.1154701   0.0000000), wk =   0.1600000
        k(    5) = (   0.2000000   0.1154701   0.0000000), wk =   0.1600000
        k(    6) = (   0.2000000   0.3464102   0.0000000), wk =   0.1600000
        k(    7) = (   0.2000000  -0.5773503   0.0000000), wk =   0.1600000
        k(    8) = (   0.2000000  -0.3464102   0.0000000), wk =   0.1600000
        k(    9) = (   0.4000000  -0.2309401   0.0000000), wk =   0.1600000
        k(   10) = (   0.4000000  -0.0000000   0.0000000), wk =   0.1600000
        k(   11) = (   0.4000000   0.2309401   0.0000000), wk =   0.1600000
        k(   12) = (   0.4000000  -0.6928203   0.0000000), wk =   0.1600000
        k(   13) = (   0.4000000  -0.4618802   0.0000000), wk =   0.1600000

     Check: negative core charge=   -0.000002

     Initial potential from superposition of free atoms

     starting charge  375.99385, renormalised to  376.00000

     negative rho (up, down):  1.166E-02 0.000E+00

     %%%%%%%%%%%%%%%%%%%%%%%%%%%%%%%%%%%%%%%%%%%%%%%%%%%%%%%%%%%%%%%%%%%%%%%%
     %                                                                      %
     % You are using vdW-DF, which was implemented by the Thonhauser group. %
     % Please cite the following two papers that made this development      %
     % possible and the two reviews that describe the various versions:     %
     %                                                                      %
     %   T. Thonhauser et al., PRL 115, 136402 (2015).                      %
     %   T. Thonhauser et al., PRB 76, 125112 (2007).                       %
     %   K. Berland et al., Rep. Prog. Phys. 78, 066501 (2015).             %
     %   D.C. Langreth et al., J. Phys.: Condens. Matter 21, 084203 (2009). %
     %                                                                      %
     %                                                                      %
     % If you are calculating the stress with vdW-DF, please also cite:     %
     %                                                                      %
     %   R. Sabatini et al., J. Phys.: Condens. Matter 24, 424209 (2012).   %
     %                                                                      %
     %%%%%%%%%%%%%%%%%%%%%%%%%%%%%%%%%%%%%%%%%%%%%%%%%%%%%%%%%%%%%%%%%%%%%%%%

     Starting wfcs are  336 randomized atomic wfcs
     Checking if some PAW data can be deallocated...

     Self-consistent Calculation

     iteration #  1     ecut=    60.00 Ry     beta= 0.70
     Davidson diagonalization with overlap
     ethr =  1.00E-02,  avg # of iterations =  2.0

     Threshold (ethr) on eigenvalues was too large:
     Diagonalizing with lowered threshold

     Davidson diagonalization with overlap
     ethr =  4.92E-04,  avg # of iterations =  4.1

[...]

     total energy              =  -27857.99839695 Ry
     estimated scf accuracy    <       2.03977704 Ry

[...]

     iteration #  7     ecut=    60.00 Ry     beta= 0.70
     Davidson diagonalization with overlap
     c_bands:  1 eigenvalues not converged
     c_bands:  2 eigenvalues not converged
     c_bands:  1 eigenvalues not converged
     c_bands:  2 eigenvalues not converged
     c_bands:  1 eigenvalues not converged
     c_bands:  1 eigenvalues not converged
     ethr =  1.19E-06,  avg # of iterations = 15.2

[...]

     iteration # 10     ecut=    60.00 Ry     beta= 0.70
     Davidson diagonalization with overlap
     c_bands:  1 eigenvalues not converged
     ethr =  7.50E-07,  avg # of iterations =  6.9

[...]

     total energy              =  -27858.27858576 Ry
     estimated scf accuracy    <       0.00000156 Ry

     iteration # 21     ecut=    60.00 Ry     beta= 0.70
     Davidson diagonalization with overlap
     ethr =  4.15E-10,  avg # of iterations =  5.9

[...]

     End of self-consistent calculation

          k = 0.0000 0.0000 0.0000 ( 94237 PWs)   bands (ev):

   -22.3753 -21.3684  -7.5193  -6.9293  -6.2068  -5.7239  -5.6836  -5.6789
    -5.1294  -5.0974  -5.0973  -5.0971  -5.0970  -5.0966  -5.0966  -5.0826
    -4.5389  -4.5386  -4.5386  -4.5385  -4.5384  -4.5381  -4.0639  -4.0639
    -4.0637  -4.0636  -4.0634  -4.0633  -3.8477  -3.8476  -3.8476  -3.8475
    -3.8474  -3.8473  -3.6220  -3.6220  -3.6159  -3.6158  -3.5997  -3.5996
    -3.5995  -3.5993  -3.5991  -3.5991  -3.5851  -3.5849  -3.0037  -3.0037
    -2.9724  -2.9722  -2.9142  -2.9141  -2.9140  -2.9138  -2.9137  -2.9135
    -2.7769  -2.7769  -2.6753  -2.6752  -2.1682  -2.1656  -2.1655  -2.1653
    -2.1650  -2.1646  -2.1422  -2.1412  -2.1008  -2.0127  -2.0127  -1.9804
    -1.9804  -1.9680  -1.9678  -1.9515  -1.9466  -1.9465  -1.9463  -1.9462
    -1.9460  -1.9459  -1.9112  -1.9111  -1.7513  -1.7512  -1.7509  -1.7507
    -1.7506  -1.7505  -1.5995  -1.5992  -1.5991  -1.5988  -1.5986  -1.5983
    -1.4995  -1.4995  -1.4010  -1.4010  -1.3366  -1.3366  -1.3245  -1.3239
    -1.2897  -1.2896  -1.2738  -1.2737  -1.1243  -1.1235  -1.1230  -1.1229
    -1.1225  -1.1222  -1.1159  -0.6314  -0.6313  -0.6311  -0.6308  -0.6308
    -0.6307  -0.5544  -0.5538  -0.5536  -0.5533  -0.5532  -0.5530  -0.4839
    -0.4838  -0.3084  -0.3079  -0.3072  -0.3069  -0.3066  -0.3064  -0.1669
    -0.1666  -0.1650  -0.1643  -0.1560  -0.1560   0.1004   0.1005   0.1005
     0.1009   0.1009   0.1009   0.1801   0.1802   0.3628   0.3630   0.3637
     0.3639   0.3641   0.3644   0.5337   0.5338   0.5338   0.5341   0.5344
     0.5344   0.5796   0.5808   0.5819   0.5826   0.5828   0.5829   0.7120
     0.7124   0.7318   0.7319   0.7320   0.7324   0.7325   0.7326   0.8375
     0.8377   0.8384   0.8386   0.8393   0.8395   0.8447   0.8447   0.9408
     0.9411   0.9414   0.9416   0.9421   0.9422   1.0457   1.0460   1.0515
     1.0516   1.0535   1.0536   1.1250   1.2701   1.2705   1.3787   1.3787
     1.3789   1.3791   1.3792   1.3793   2.2159   2.2700   2.2721   2.2747
     2.2764   2.2769   2.2770   4.5951   4.6024   4.6083   4.6107   4.6110
     4.6111   5.4989   6.1352   6.1365   6.1916   6.1918   6.1926   6.1929
     6.3972   6.3981

[...]

          k = 0.4000-0.4619 0.0000 ( 94052 PWs)   bands (ev):

   -22.3753 -21.3684  -6.9286  -6.5514  -6.5509  -5.9435  -5.7250  -5.6837
    -5.6790  -5.2891  -5.2888  -4.7800  -4.7739  -4.6450  -4.6114  -4.5017
    -4.5014  -4.3938  -4.3934  -4.2673  -4.2670  -4.2664  -4.2292  -4.2289
    -4.1942  -4.1931  -4.0706  -4.0602  -4.0599  -4.0167  -4.0163  -3.9136
    -3.8200  -3.8037  -3.7370  -3.6441  -3.6439  -3.6257  -3.6255  -3.6102
    -3.4952  -3.4951  -3.4023  -3.4021  -3.2279  -3.2198  -3.1595  -3.0587
    -3.0586  -3.0077  -3.0076  -2.8993  -2.8497  -2.8003  -2.8001  -2.7795
    -2.7350  -2.7347  -2.7039  -2.5978  -2.5976  -2.5676  -2.5673  -2.5585
    -2.5583  -2.5582  -2.4846  -2.4842  -2.3528  -2.3292  -2.2804  -2.2801
    -2.1623  -2.1459  -2.1414  -2.1230  -2.1222  -2.1212  -2.0764  -2.0327
    -2.0326  -1.9438  -1.9193  -1.9183  -1.9131  -1.8797  -1.8469  -1.7996
    -1.7984  -1.7582  -1.6996  -1.6995  -1.6795  -1.6785  -1.5692  -1.5223
    -1.5220  -1.4746  -1.4744  -1.4332  -1.4330  -1.4138  -1.4135  -1.3846
    -1.3842  -1.3329  -1.3321  -1.3014  -1.2848  -1.2847  -1.2831  -1.2826
    -1.2622  -1.2321  -1.1655  -1.1623  -1.1616  -0.9546  -0.9467  -0.8535
    -0.8531  -0.7460  -0.7335  -0.7328  -0.7048  -0.6466  -0.6413  -0.6411
    -0.6180  -0.6168  -0.5328  -0.4980  -0.4977  -0.4297  -0.4088  -0.4068
    -0.3462  -0.3452  -0.2941  -0.1533  -0.0873  -0.0865  -0.0668  -0.0664
     0.0265   0.0333   0.0340   0.0555   0.0688   0.0705   0.1127   0.1131
     0.2310   0.2320   0.2420   0.3001   0.3005   0.3198   0.3303   0.3442
     0.3449   0.5071   0.5580   0.5819   0.6646   0.6658   0.7482   0.7488
     0.8348   0.8762   0.8827   0.8830   0.9900   0.9906   1.0621   1.0936
     1.1023   1.1136   1.1140   1.1578   1.1588   1.1935   1.2704   1.2708
     1.2948   1.3234   1.3241   1.3284   1.3307   1.3875   1.5290   1.5355
     1.5358   1.5365   1.5366   1.6120   1.6779   1.7259   1.8667   2.6854
     2.6854   2.9236   2.9340   2.9593   3.0909   3.0911   3.0992   3.5379
     3.6982   3.6983   4.1603   4.1890   4.1909   4.3051   4.3053   4.5193
     4.6028   4.6726   4.7132   5.0468   5.1422   5.1429   5.6266   5.7812
     5.7831   5.9638

     the Fermi energy is     1.3017 ev

!    total energy              =  -27858.27858588 Ry

     total all-electron energy =  -1327020.501894 Ry
     estimated scf accuracy    <       0.00000057 Ry
     smearing contrib. (-TS)   =       0.00228243 Ry
     internal energy E=F+TS    =  -27858.28086831 Ry

     The total energy is F=E-TS. E is the sum of the following terms:
     one-electron contribution =  -29205.68819780 Ry
     hartree contribution      =   14900.52283810 Ry
     xc contribution           =    -910.05918984 Ry
     ewald contribution        =   12857.73603585 Ry
     one-center paw contrib.   =  -25500.79235462 Ry

     convergence has been achieved in  21 iterations

[...]

     Forces acting on atoms (cartesian axes, Ry/au):

     atom    1 type  1   force =    -0.00003794   -0.00000832   -0.00333658
     atom    2 type  1   force =     0.00004036    0.00000418   -0.00342437
     atom    3 type  1   force =    -0.00002063   -0.00001269   -0.00342674
     atom    4 type  1   force =     0.00001988    0.00000172   -0.00341353
     atom    5 type  1   force =    -0.00000949   -0.00003343   -0.00341562
     atom    6 type  1   force =    -0.00003155   -0.00003562   -0.00343034
     atom    7 type  1   force =    -0.00002870   -0.00000764   -0.00340647
     atom    8 type  1   force =    -0.00000601   -0.00001524   -0.00344088
     atom    9 type  1   force =     0.00002400    0.00002729   -0.00346664
     atom   10 type  1   force =    -0.00005443   -0.00000956    0.00309772
     atom   11 type  1   force =     0.00002287   -0.00005308    0.00307877
     atom   12 type  1   force =     0.00007538   -0.00005077    0.00303260
     atom   13 type  1   force =    -0.00003211    0.00003490    0.00304593
     atom   14 type  1   force =     0.00002485   -0.00000090    0.00304250
     atom   15 type  1   force =     0.00004194   -0.00002155    0.00314723
     atom   16 type  1   force =    -0.00001490    0.00008344    0.00298574
     atom   17 type  1   force =     0.00001525    0.00002205    0.00316717
     atom   18 type  1   force =     0.00003000    0.00000793    0.00311949
     atom   19 type  1   force =    -0.00002247   -0.00000207    0.00016152
     atom   20 type  1   force =    -0.00007487   -0.00004686    0.00023457
     atom   21 type  1   force =     0.00008391   -0.00001119    0.00032569
     atom   22 type  1   force =    -0.00006306   -0.00002362    0.00005344
     atom   23 type  1   force =     0.00000634    0.00001145    0.00028808
     atom   24 type  1   force =     0.00004476   -0.00002930    0.00019224
     atom   25 type  1   force =     0.00003893    0.00004850    0.00018548
     atom   26 type  1   force =    -0.00004250   -0.00001802    0.00016371
     atom   27 type  1   force =     0.00001427   -0.00003249    0.00006342
     atom   28 type  1   force =    -0.00004795    0.00000763    0.00050419
     atom   29 type  1   force =    -0.00006108   -0.00010453    0.00059012
     atom   30 type  1   force =     0.00002950   -0.00015364    0.00063334
     atom   31 type  1   force =    -0.00007726   -0.00001037    0.00062179
     atom   32 type  1   force =     0.00004159    0.00004248    0.00086414
     atom   33 type  1   force =     0.00009127    0.00001514    0.00057613
     atom   34 type  1   force =    -0.00010809    0.00006420    0.00058748
     atom   35 type  1   force =     0.00007009    0.00006242    0.00052699
     atom   36 type  1   force =     0.00000803    0.00000687    0.00046041
     atom   37 type  2   force =     0.00006223    0.00034502   -0.00173352
     atom   38 type  3   force =    -0.00021193   -0.00004021   -0.00114198
     atom   39 type  3   force =     0.00015949   -0.00006410   -0.00111321

     Total force =     0.003089     Total SCF correction =     0.001340
     SCF correction compared to forces is large: reduce conv_thr to get better values

[...]

     negative rho (up, down):  1.301E-02 0.000E+00

     negative rho (up, down):  1.301E-02 0.000E+00
 BEEFens 2000 ensemble energies
             -0.608972570627976E+02
             -0.361842465787137E+01
             -0.158963304355174E+02
              0.431257065616902E+02
             -0.222233497535447E+02
             -0.206256739550175E+02
             -0.353724127223328E+02
             -0.868549719677921E+02
             -0.467571202508206E+02
             -0.475423803908626E+02
             -0.370617560887823E+02
              0.226267461543451E+01
              0.405042558253427E+01
              0.769674497543562E+01
              0.266428474510764E+01
              0.476831584723527E+02
             -0.210042973773067E+02
             -0.231632755415900E+02
              0.193353359068262E+02
             -0.112872648583679E+03
              0.538605016423537E+02
             -0.291186216640997E+02
             -0.336197562412187E+01
             -0.114874325952250E+02
             -0.889571431644970E+01
             -0.469884094214217E+01
              0.886766794558602E+02
             -0.187143735163259E+02
             -0.905659833318509E+01
             -0.520271939561507E+02
              0.819645179203826E+02
             -0.188559736619335E+02
             -0.376543676296045E+02
              0.250640736184362E+02
             -0.286670691295836E+01
              0.164204816772801E+02
             -0.490757333174025E+01
              0.108931152196723E+02
              0.288708670219705E+02
             -0.103755166525424E+03
              0.560784910211529E+02
              0.142755707595497E+02
             -0.169521186787142E+01
             -0.363125884705114E+02
              0.123644148479925E+02
             -0.147173787360074E+02
              0.399902053616669E+02
              0.366633344988765E+02
             -0.309849826501545E+02
             -0.276169421539357E+02
             -0.329350848096570E+02
             -0.353481010305365E+02
              0.136302655526928E+02
             -0.493040847945031E+02
              0.115987945783368E+02
              0.625610424535808E+02
              0.637581408025559E+02
              0.357634890596155E+02
              0.155107823195790E+02
              0.271294303223216E+02
[...]
             -0.708982756903426E+02
             -0.912891781147778E+00
             -0.245872783129271E+01
             -0.885267079563084E+01
             -0.180779553767314E+01
             -0.655850873108567E+02
             -0.212136022815856E+02
              0.540138358398560E+01
              0.898854701274257E+01
              0.470537296151342E+02
             -0.398876085915566E+02
              0.660778052049941E+02
             -0.426970856483341E+02
              0.210882056937978E+02
              0.351716372929135E+02

 BEEF-vdW xc energy contributions
           1 :   -785.901093069279
           2 :    721.788228176100
           3 :   -611.108673532611
           4 :    481.111387289974
           5 :   -359.130283098122
           6 :    264.789808919934
           7 :   -205.677057643211
           8 :    177.320386140394
           9 :   -167.157225580702
          10 :    160.628674716433
          11 :   -146.923707946026
          12 :    122.200617765274
          13 :   -89.4427995668980
          14 :    55.5924118803132
          15 :   -27.6309087784994
          16 :    9.34276185419697
          17 :  -3.712957220727731E-003
          18 :   -4.71268414543829
          19 :    10.2853950694943
          20 :   -20.6491288177461
          21 :    36.4848173118929
          22 :   -55.1795493441286
          23 :    72.3243974456323
          24 :   -83.9267725227600
          25 :    88.2297506804088
          26 :   -86.3489086881716
          27 :    81.5410673666659
          28 :   -77.5330127582508
          29 :    76.7458035655889
          30 :   -79.2639060647866
          31 :   -86.0399188625187
          32 :   -65.8853606716252

     Writing output data file ./pwscf.save/

     General routines

     Parallel routines

   This run was terminated on:  14:19:19  16May2022

   JOB DONE.