     Program PWSCF v.6.7MaX starts on 20May2022 at 14:56:21

     Reading input from co3-ensemble.in
Warning: card &CELL ignored
Warning: card / ignored

     Current dimensions of program PWSCF are:
     Max number of different atomic species (ntypx) = 10
     Max number of k-points (npk) =  40000
     Max angular momentum in pseudopotentials (lmaxx) =  3
     file Pt.pbe-n-kjpaw_psl.1.0.0.UPF: wavefunction(s)  6S 5D renormalized
     file O.pbe-nl-kjpaw_psl.1.0.0.UPF: wavefunction(s)  2S 2P renormalized
     file C.pbe-n-kjpaw_psl.1.0.0.UPF: wavefunction(s)  2S 2P renormalized

     IMPORTANT: XC functional enforced from input :
     Exchange-correlation= BEEF-VDW
                           (   1   4  43  14   2   0   0)
     Any further DFT definition will be discarded
     Please, verify this is what you really want

     Subspace diagonalization in iterative solution of the eigenvalue problem:
     a serial algorithm will be used

     bravais-lattice index     =            0
     lattice parameter (alat)  =      16.0349  a.u.
     unit-cell volume          =   11738.2026 (a.u.)^3
     number of atoms/cell      =           40
     number of atomic types    =            3
     number of electrons       =       382.00
     number of Kohn-Sham states=          229
     kinetic-energy cutoff     =      60.0000  Ry
     charge density cutoff     =     240.0000  Ry
     scf convergence threshold =      1.0E-06
     mixing beta               =       0.7000
     number of iterations used =            8  local-TF  mixing
     Exchange-correlation= BEEF-VDW
                           (   1   4  43  14   2   0   0)

     celldm(1)=  16.034858  celldm(2)=   0.000000  celldm(3)=   0.000000
     celldm(4)=   0.000000  celldm(5)=   0.000000  celldm(6)=   0.000000

     crystal axes: (cart. coord. in units of alat)
               a(1) = (   1.000000   0.000000   0.000000 )
               a(2) = (   0.500000   0.866025   0.000000 )
               a(3) = (   0.000000   0.000000   3.287575 )

     reciprocal axes: (cart. coord. in units 2 pi/alat)
               b(1) = (  1.000000 -0.577350  0.000000 )
               b(2) = (  0.000000  1.154701  0.000000 )
               b(3) = (  0.000000  0.000000  0.304176 )

     PseudoPot. # 1 for Pt read from file:
     /users/bkreitz1/quantum-espresso/potentials/Pt.pbe-n-kjpaw_psl.1.0.0.UPF
     MD5 check sum: 04dc8a03c51ece93fc7b5889c2958091
     Pseudo is Projector augmented-wave + core cor, Zval = 10.0
     Generated using 'atomic' code by A. Dal Corso  v.6.7MaX
     Shape of augmentation charge: PSQ
     Using radial grid of 1277 points,  6 beta functions with:
                l(1) =   0
                l(2) =   0
                l(3) =   1
                l(4) =   1
                l(5) =   2
                l(6) =   2
     Q(r) pseudized with 0 coefficients

     PseudoPot. # 2 for O  read from file:
     /users/bkreitz1/quantum-espresso/potentials/O.pbe-nl-kjpaw_psl.1.0.0.UPF
     MD5 check sum: eef08af8b58d9ec80f8fdb78829eb7cf
     Pseudo is Projector augmented-wave + core cor, Zval =  6.0
     Generated using 'atomic' code by A. Dal Corso  v.6.7MaX
     Shape of augmentation charge: PSQ
     Using radial grid of 1095 points,  4 beta functions with:
                l(1) =   0
                l(2) =   0
                l(3) =   1
                l(4) =   1
     Q(r) pseudized with 0 coefficients

     PseudoPot. # 3 for C  read from file:
     /users/bkreitz1/quantum-espresso/potentials/C.pbe-n-kjpaw_psl.1.0.0.UPF
     MD5 check sum: a169b0ebad56f5ec0d79c4633f80bf22
     Pseudo is Projector augmented-wave + core cor, Zval =  4.0
     Generated using 'atomic' code by A. Dal Corso  v.6.7MaX
     Shape of augmentation charge: PSQ
     Using radial grid of 1073 points,  4 beta functions with:
                l(1) =   0
                l(2) =   0
                l(3) =   1
                l(4) =   1
     Q(r) pseudized with 0 coefficients

     atomic species   valence    mass     pseudopotential
        Pt            10.00   195.08400     Pt( 1.00)
        O              6.00    15.99900     O ( 1.00)
        C              4.00    12.01100     C ( 1.00)

     No symmetry found

   Cartesian axes

     site n.     atom                  positions (alat units)
         1           Pt  tau(   1) = (   0.0000000   0.0000000   1.0017346  )
         2           Pt  tau(   2) = (   0.3333333   0.0000000   1.0017346  )
         3           Pt  tau(   3) = (   0.6666667   0.0000000   1.0017346  )
         4           Pt  tau(   4) = (   0.1666667   0.2886751   1.0017346  )
         5           Pt  tau(   5) = (   0.5000000   0.2886751   1.0017346  )
         6           Pt  tau(   6) = (   0.8333333   0.2886751   1.0017346  )
         7           Pt  tau(   7) = (   0.3333333   0.5773503   1.0017346  )
         8           Pt  tau(   8) = (   0.6666667   0.5773503   1.0017346  )
         9           Pt  tau(   9) = (   1.0000000   0.5773503   1.0017346  )
        10           Pt  tau(  10) = (   0.1666667   0.0962250   1.2739001  )
        11           Pt  tau(  11) = (   0.5000000   0.0962250   1.2739001  )
        12           Pt  tau(  12) = (   0.8333333   0.0962250   1.2739001  )
        13           Pt  tau(  13) = (   0.3333333   0.3849002   1.2739001  )
        14           Pt  tau(  14) = (   0.6666667   0.3849002   1.2739001  )
        15           Pt  tau(  15) = (   1.0000000   0.3849002   1.2739001  )
        16           Pt  tau(  16) = (   0.5000000   0.6735753   1.2739001  )
        17           Pt  tau(  17) = (   0.8333333   0.6735753   1.2739001  )
        18           Pt  tau(  18) = (   1.1666667   0.6735753   1.2739001  )
        19           Pt  tau(  19) = (  -0.0020767   0.1940284   1.5464725  )
        20           Pt  tau(  20) = (   0.3357121   0.1940807   1.5467110  )
        21           Pt  tau(  21) = (   0.6667485   0.1922730   1.5439728  )
        22           Pt  tau(  22) = (   0.1667096   0.4809553   1.5421785  )
        23           Pt  tau(  23) = (   0.5002520   0.4797616   1.5452101  )
        24           Pt  tau(  24) = (   0.8331444   0.4798780   1.5450127  )
        25           Pt  tau(  25) = (   0.3339761   0.7693403   1.5407702  )
        26           Pt  tau(  26) = (   0.6667282   0.7709405   1.5398331  )
        27           Pt  tau(  27) = (   0.9994351   0.7694222   1.5407557  )
        28           Pt  tau(  28) = (   0.0008234  -0.0004455   1.8157696  )
        29           Pt  tau(  29) = (   0.3328549  -0.0003819   1.8159038  )
        30           Pt  tau(  30) = (   0.6668642  -0.0044453   1.8123923  )
        31           Pt  tau(  31) = (   0.1670359   0.2889944   1.8158505  )
        32           Pt  tau(  32) = (   0.5026201   0.2890613   1.8259087  )
        33           Pt  tau(  33) = (   0.8317451   0.2891914   1.8249689  )
        34           Pt  tau(  34) = (   0.3328866   0.5783510   1.8157637  )
        35           Pt  tau(  35) = (   0.6667900   0.5834626   1.8133984  )
        36           Pt  tau(  36) = (   1.0008505   0.5785202   1.8156096  )
        37           O   tau(  37) = (   0.5308820   0.2883160   2.0668990  )
        38           C   tau(  38) = (   0.6690478   0.2888920   2.1407693  )
        39           O   tau(  39) = (   0.8065624   0.2895548   2.0660199  )
        40           O   tau(  40) = (   0.6693752   0.2888635   2.2870186  )

     number of k points=    13  Marzari-Vanderbilt smearing, width (Ry)=  0.0200
                       cart. coord. in units 2pi/alat
        k(    1) = (   0.0000000   0.0000000   0.0000000), wk =   0.0800000
        k(    2) = (   0.0000000   0.2309401   0.0000000), wk =   0.1600000
        k(    3) = (   0.0000000   0.4618802   0.0000000), wk =   0.1600000
        k(    4) = (   0.2000000  -0.1154701   0.0000000), wk =   0.1600000
        k(    5) = (   0.2000000   0.1154701   0.0000000), wk =   0.1600000
        k(    6) = (   0.2000000   0.3464102   0.0000000), wk =   0.1600000
        k(    7) = (   0.2000000  -0.5773503   0.0000000), wk =   0.1600000
        k(    8) = (   0.2000000  -0.3464102   0.0000000), wk =   0.1600000
        k(    9) = (   0.4000000  -0.2309401   0.0000000), wk =   0.1600000
        k(   10) = (   0.4000000  -0.0000000   0.0000000), wk =   0.1600000
        k(   11) = (   0.4000000   0.2309401   0.0000000), wk =   0.1600000
        k(   12) = (   0.4000000  -0.6928203   0.0000000), wk =   0.1600000
        k(   13) = (   0.4000000  -0.4618802   0.0000000), wk =   0.1600000

     Check: negative core charge=   -0.000002

     Initial potential from superposition of free atoms

     starting charge  381.99385, renormalised to  382.00000

     negative rho (up, down):  1.403E-02 0.000E+00

     %%%%%%%%%%%%%%%%%%%%%%%%%%%%%%%%%%%%%%%%%%%%%%%%%%%%%%%%%%%%%%%%%%%%%%%%
     %                                                                      %
     % You are using vdW-DF, which was implemented by the Thonhauser group. %
     % Please cite the following two papers that made this development      %
     % possible and the two reviews that describe the various versions:     %
     %                                                                      %
     %   T. Thonhauser et al., PRL 115, 136402 (2015).                      %
     %   T. Thonhauser et al., PRB 76, 125112 (2007).                       %
     %   K. Berland et al., Rep. Prog. Phys. 78, 066501 (2015).             %
     %   D.C. Langreth et al., J. Phys.: Condens. Matter 21, 084203 (2009). %
     %                                                                      %
     %                                                                      %
     % If you are calculating the stress with vdW-DF, please also cite:     %
     %                                                                      %
     %   R. Sabatini et al., J. Phys.: Condens. Matter 24, 424209 (2012).   %
     %                                                                      %
     %%%%%%%%%%%%%%%%%%%%%%%%%%%%%%%%%%%%%%%%%%%%%%%%%%%%%%%%%%%%%%%%%%%%%%%%

     Starting wfcs are  340 randomized atomic wfcs
     Checking if some PAW data can be deallocated...

     Self-consistent Calculation

     iteration #  1     ecut=    60.00 Ry     beta= 0.70
     Davidson diagonalization with overlap
     ethr =  1.00E-02,  avg # of iterations =  2.0

     Threshold (ethr) on eigenvalues was too large:
     Diagonalizing with lowered threshold

     Davidson diagonalization with overlap
     ethr =  9.25E-04,  avg # of iterations =  2.5

[...]

     total energy              =  -27900.28894499 Ry
     estimated scf accuracy    <       3.65468679 Ry

[...]

     iteration #  6     ecut=    60.00 Ry     beta= 0.70
     Davidson diagonalization with overlap
     c_bands:  1 eigenvalues not converged
     c_bands:  1 eigenvalues not converged
     c_bands:  1 eigenvalues not converged
     c_bands:  2 eigenvalues not converged
     c_bands:  2 eigenvalues not converged
     c_bands:  1 eigenvalues not converged
     c_bands:  1 eigenvalues not converged
     c_bands:  2 eigenvalues not converged
     c_bands:  1 eigenvalues not converged
     c_bands:  2 eigenvalues not converged
     c_bands:  2 eigenvalues not converged
     ethr =  1.67E-05,  avg # of iterations = 19.7

[...]

     iteration # 15     ecut=    60.00 Ry     beta= 0.70
     Davidson diagonalization with overlap
     c_bands:  1 eigenvalues not converged
     c_bands:  1 eigenvalues not converged
     c_bands:  1 eigenvalues not converged
     ethr =  1.02E-07,  avg # of iterations =  5.5

[...]

     total energy              =  -27900.66904739 Ry
     estimated scf accuracy    <       0.00000143 Ry

     iteration # 21     ecut=    60.00 Ry     beta= 0.70
     Davidson diagonalization with overlap
     ethr =  3.75E-10,  avg # of iterations =  3.7

[...]

     End of self-consistent calculation

          k = 0.0000 0.0000 0.0000 ( 92217 PWs)   bands (ev):

   -21.1969 -18.4493 -18.0382  -7.8726  -7.5321  -6.6770  -6.5056  -5.4673
    -5.4236  -5.4122  -5.4101  -5.3997  -5.3866  -5.3779  -5.3703  -4.8728
    -4.8654  -4.8566  -4.8434  -4.8358  -4.8336  -4.7459  -4.5840  -4.3926
    -4.3842  -4.3823  -4.3759  -4.3598  -4.3545  -4.1723  -4.1593  -4.1581
    -4.1480  -4.1392  -4.1248  -3.9486  -3.9477  -3.9397  -3.9362  -3.9304
    -3.9216  -3.9207  -3.9145  -3.9109  -3.9035  -3.8794  -3.8660  -3.3612
    -3.3492  -3.3139  -3.3088  -3.2958  -3.2823  -3.2502  -3.2375  -3.2364
    -3.2336  -3.1140  -3.0725  -3.0345  -2.9784  -2.8667  -2.5656  -2.5484
    -2.5200  -2.4919  -2.4898  -2.4679  -2.4097  -2.3735  -2.3227  -2.3220
    -2.3185  -2.3016  -2.2910  -2.2901  -2.2802  -2.2612  -2.2552  -2.2459
    -2.2374  -2.2231  -2.2167  -2.1597  -2.1591  -2.0877  -2.0828  -2.0611
    -2.0506  -2.0247  -1.9769  -1.9457  -1.9245  -1.9089  -1.8948  -1.8933
    -1.8575  -1.8401  -1.8338  -1.8122  -1.7846  -1.7383  -1.7360  -1.6395
    -1.6384  -1.6079  -1.5993  -1.5937  -1.5778  -1.5052  -1.4521  -1.4357
    -1.4349  -1.4177  -1.3100  -1.1892  -1.1453  -1.0179  -0.9874  -0.9740
    -0.9733  -0.9555  -0.9527  -0.9292  -0.9181  -0.8840  -0.8192  -0.8109
    -0.7901  -0.7683  -0.7501  -0.6974  -0.6680  -0.6239  -0.6028  -0.5497
    -0.5489  -0.4827  -0.4707  -0.4687  -0.4591  -0.4522  -0.3440  -0.2487
    -0.2230  -0.2215  -0.2141  -0.1963  -0.1642  -0.1406  -0.1260  -0.0871
     0.0042   0.0457   0.0509   0.0568   0.0894   0.1004   0.1363   0.1777
     0.1905   0.2093   0.2226   0.2313   0.2326   0.2613   0.2764   0.2870
     0.3323   0.3362   0.3608   0.3754   0.3784   0.3952   0.4106   0.4357
     0.4494   0.4618   0.4730   0.4940   0.4954   0.5024   0.5215   0.5335
     0.5489   0.5729   0.6045   0.6113   0.6154   0.6259   0.6443   0.6512
     0.6521   0.7261   0.7300   0.7357   0.7505   0.7547   0.9230   0.9389
     1.0306   1.0316   1.0549   1.0655   1.0706   1.0776   1.2296   1.2336
     1.9502   1.9732   1.9994   2.0031   2.0364   2.5277   3.0081   4.2902
     4.3188   4.3323   4.3403   4.7412   4.9839   5.8331   5.8393   5.8740
     5.8749   5.8938   5.8946   6.2938   6.6010

[...]

          k = 0.4000-0.4619 0.0000 ( 92130 PWs)   bands (ev):

   -21.1969 -18.4493 -18.0382  -7.5954  -6.8988  -6.8351  -6.6338  -6.2339
    -5.6051  -5.5904  -5.1050  -5.0750  -4.9573  -4.9158  -4.8380  -4.8039
    -4.7747  -4.7156  -4.6722  -4.6366  -4.5819  -4.5729  -4.5500  -4.5319
    -4.5199  -4.5016  -4.4537  -4.3774  -4.3629  -4.3585  -4.3200  -4.2989
    -4.2399  -4.1475  -4.1100  -4.0559  -3.9718  -3.9595  -3.9513  -3.9380
    -3.9161  -3.8301  -3.8208  -3.7210  -3.7071  -3.5496  -3.5276  -3.5053
    -3.4196  -3.3871  -3.3392  -3.3261  -3.2459  -3.1883  -3.1462  -3.1283
    -3.1164  -3.0773  -3.0391  -3.0218  -2.9782  -2.9326  -2.9095  -2.8886
    -2.8814  -2.8722  -2.8617  -2.8041  -2.7979  -2.7564  -2.6662  -2.6373
    -2.6027  -2.5719  -2.5088  -2.4619  -2.4437  -2.4347  -2.3970  -2.3862
    -2.3530  -2.3233  -2.3131  -2.2772  -2.2532  -2.2179  -2.1839  -2.1711
    -2.1508  -2.1204  -2.0499  -2.0228  -2.0060  -1.9823  -1.9685  -1.9095
    -1.8749  -1.8254  -1.8195  -1.7879  -1.7717  -1.7560  -1.7323  -1.7180
    -1.7023  -1.6973  -1.6661  -1.6415  -1.6254  -1.6128  -1.5959  -1.5882
    -1.5555  -1.5435  -1.5419  -1.4996  -1.4835  -1.4132  -1.3326  -1.2424
    -1.1860  -1.1807  -1.1677  -1.0825  -1.0652  -1.0432  -1.0105  -0.9838
    -0.9475  -0.9366  -0.9128  -0.8955  -0.8511  -0.8102  -0.7741  -0.7163
    -0.6992  -0.6794  -0.6343  -0.6038  -0.5549  -0.4936  -0.4729  -0.4044
    -0.3830  -0.3403  -0.3182  -0.2879  -0.2759  -0.2592  -0.2362  -0.2146
    -0.1966  -0.1648  -0.1021  -0.0848  -0.0571  -0.0330  -0.0127   0.0116
     0.0301   0.0666   0.0999   0.1314   0.1810   0.2067   0.3186   0.3553
     0.3864   0.4110   0.4394   0.4573   0.5380   0.5768   0.6094   0.6559
     0.7253   0.7395   0.7493   0.7762   0.7904   0.8195   0.8387   0.8511
     0.9077   0.9365   0.9519   0.9676   0.9831   1.0086   1.0200   1.0699
     1.1604   1.1789   1.1981   1.2228   1.2306   1.2777   1.2946   1.3978
     1.5368   1.6796   1.7932   2.3651   2.3687   2.6607   2.7332   2.7580
     2.7846   2.8531   3.0188   3.3798   3.3909   3.5243   3.8572   3.9607
     3.9939   4.0018   4.0152   4.2172   4.3068   4.5421   4.6348   4.8329
     4.8879   5.0796   5.4734   5.4775   5.6444

     the Fermi energy is     0.9935 ev

!    total energy              =  -27900.66904748 Ry

     total all-electron energy =  -1327171.739251 Ry
     estimated scf accuracy    <       0.00000045 Ry
     smearing contrib. (-TS)   =       0.00064320 Ry
     internal energy E=F+TS    =  -27900.66969068 Ry

     The total energy is F=E-TS. E is the sum of the following terms:
     one-electron contribution =  -29223.60369794 Ry
     hartree contribution      =   14909.22416731 Ry
     xc contribution           =    -917.89564278 Ry
     ewald contribution        =   12842.54130386 Ry
     one-center paw contrib.   =  -25510.93582113 Ry

     convergence has been achieved in  21 iterations

[...]

     Forces acting on atoms (cartesian axes, Ry/au):

     atom    1 type  1   force =    -0.00059019    0.00001100   -0.00692825
     atom    2 type  1   force =     0.00051793   -0.00001210   -0.00689919
     atom    3 type  1   force =     0.00000989   -0.00028464   -0.00374867
     atom    4 type  1   force =    -0.00001171   -0.00118552   -0.00249766
     atom    5 type  1   force =    -0.00072788   -0.00052057   -0.00354563
     atom    6 type  1   force =     0.00070250   -0.00053950   -0.00360100
     atom    7 type  1   force =     0.00020519    0.00079960   -0.00319179
     atom    8 type  1   force =    -0.00002475    0.00069648   -0.00263373
     atom    9 type  1   force =    -0.00020570    0.00079254   -0.00318045
     atom   10 type  1   force =     0.00012589    0.00231643    0.00397441
     atom   11 type  1   force =    -0.00265386    0.00156883    0.00425015
     atom   12 type  1   force =     0.00262448    0.00148228    0.00405297
     atom   13 type  1   force =     0.00134294   -0.00168409    0.00830779
     atom   14 type  1   force =    -0.00007671   -0.00032114    0.00963088
     atom   15 type  1   force =    -0.00124813   -0.00164342    0.00803095
     atom   16 type  1   force =     0.00000513   -0.00097090    0.00084198
     atom   17 type  1   force =     0.00001228   -0.00087082    0.00075799
     atom   18 type  1   force =     0.00001410   -0.00085307    0.00063940
     atom   19 type  1   force =     0.00017070   -0.00007271   -0.00026376
     atom   20 type  1   force =    -0.00005302   -0.00005478   -0.00022522
     atom   21 type  1   force =     0.00005984   -0.00004656    0.00014478
     atom   22 type  1   force =     0.00006046    0.00015993   -0.00007625
     atom   23 type  1   force =     0.00001681    0.00011567    0.00006203
     atom   24 type  1   force =     0.00007639    0.00009792    0.00006726
     atom   25 type  1   force =     0.00006063   -0.00009881    0.00000165
     atom   26 type  1   force =     0.00005822    0.00020973   -0.00016219
     atom   27 type  1   force =     0.00004039   -0.00010109   -0.00002851
     atom   28 type  1   force =     0.00004698   -0.00022574   -0.00020883
     atom   29 type  1   force =     0.00010916   -0.00024635   -0.00021724
     atom   30 type  1   force =     0.00006544    0.00013891   -0.00078520
     atom   31 type  1   force =     0.00003870    0.00033414   -0.00046050
     atom   32 type  1   force =    -0.00002572    0.00000118   -0.00089189
     atom   33 type  1   force =     0.00012395   -0.00003053   -0.00088874
     atom   34 type  1   force =    -0.00005944    0.00007649   -0.00020637
     atom   35 type  1   force =     0.00009673    0.00028162   -0.00063950
     atom   36 type  1   force =     0.00017597    0.00004291   -0.00022724
     atom   37 type  2   force =     0.00289583    0.00013558    0.00381544
     atom   38 type  3   force =    -0.00145116    0.00062756    0.01841165
     atom   39 type  2   force =    -0.00257433   -0.00009043    0.00403096
     atom   40 type  2   force =     0.00004607   -0.00003603   -0.02551248

     Total force =     0.032280     Total SCF correction =     0.002327

[...]

     negative rho (up, down):  1.536E-02 0.000E+00

     negative rho (up, down):  1.536E-02 0.000E+00
 BEEFens 2000 ensemble energies
             -0.614762810124195E+02
             -0.365829135033641E+01
             -0.160278006094444E+02
              0.435088651342809E+02
             -0.223876550708647E+02
             -0.207754571396918E+02
             -0.357945349182191E+02
             -0.877173242490435E+02
             -0.470854105493189E+02
             -0.478576878920114E+02
             -0.373953990845445E+02
              0.232674639808759E+01
              0.410971500564301E+01
              0.763224407318941E+01
              0.270974636441923E+01
              0.481024777125983E+02
             -0.211767262773637E+02
             -0.232693404691370E+02
              0.195304052865561E+02
             -0.113855947035621E+03
              0.543776223603886E+02
             -0.292708049302288E+02
             -0.341191543363013E+01
             -0.115523123259189E+02
             -0.888449471372485E+01
             -0.476329234261098E+01
              0.894400627531841E+02
             -0.189235672955513E+02
             -0.915668788955259E+01
             -0.525469714689365E+02
              0.825655580347723E+02
             -0.189076687454184E+02
             -0.380258952447941E+02
              0.252465058762774E+02
             -0.287950373809207E+01
              0.166702917526816E+02
             -0.487652389990848E+01
              0.108865017185589E+02
              0.291836804405952E+02
             -0.104650310707041E+03
              0.565477425071170E+02
              0.143998047200178E+02
             -0.179141393777894E+01
             -0.366146632068724E+02
              0.124583677220405E+02
             -0.148700608534919E+02
              0.404361952648082E+02
              0.369697520000371E+02
             -0.311436095923295E+02
             -0.279058789582136E+02
             -0.331978636894466E+02
             -0.356667495764165E+02
              0.137946879733473E+02
             -0.497841070547236E+02
              0.117443573316170E+02
              0.631177269126443E+02
              0.644350074819771E+02
              0.360230761947125E+02
              0.156681330409106E+02
              0.274198004598994E+02
[...]
             -0.715563395133153E+02
             -0.902338117687464E+00
             -0.244521198358710E+01
             -0.895955850325799E+01
             -0.175678254636188E+01
             -0.661484239478229E+02
             -0.212994759184450E+02
              0.550447178925733E+01
              0.909786025162958E+01
              0.475015538175235E+02
             -0.402842963149666E+02
              0.665405955239441E+02
             -0.430418229264143E+02
              0.213286870069198E+02
              0.355582711285665E+02

 BEEF-vdW xc energy contributions
           1 :   -792.600617921939
           2 :    727.815012841165
           3 :   -615.831341674985
           4 :    484.212600127532
           5 :   -360.722410105853
           6 :    265.250464643237
           7 :   -205.448530055797
           8 :    176.786033900592
           9 :   -166.577636481270
          10 :    160.127917423151
          11 :   -146.514617082604
          12 :    121.839669409789
          13 :   -89.0959891828595
          14 :    55.2688013192130
          15 :   -27.3662052424193
          16 :    9.17051377674056
          17 :   5.984359912554282E-002
          18 :   -4.67507183200814
          19 :    10.1743613857410
          20 :   -20.4962677598995
          21 :    36.3107429403199
          22 :   -54.9925682733153
          23 :    72.1231450901956
          24 :   -83.6998434527950
          25 :    87.9657781832383
          26 :   -86.0542545880289
          27 :    81.2391773493052
          28 :   -77.2458160862755
          29 :    76.4816661815743
          30 :   -79.0224891720460
          31 :   -86.8252682207477
          32 :   -66.4482358986280

     Writing output data file ./pwscf.save/

     General routines

     Parallel routines

   This run was terminated on:  19:18:47  20May2022

   JOB DONE.