     Program PWSCF v.6.7MaX starts on 20Dec2022 at 15:49:16

     Reading input from coh-ensemble.in
Warning: card &CELL ignored
Warning: card / ignored

     Current dimensions of program PWSCF are:
     Max number of different atomic species (ntypx) = 10
     Max number of k-points (npk) =  40000
     Max angular momentum in pseudopotentials (lmaxx) =  3
     file Pt.pbe-n-kjpaw_psl.1.0.0.UPF: wavefunction(s)  6S 5D renormalized
     file C.pbe-n-kjpaw_psl.1.0.0.UPF: wavefunction(s)  2S 2P renormalized
     file O.pbe-nl-kjpaw_psl.1.0.0.UPF: wavefunction(s)  2S 2P renormalized
     file H.pbe-kjpaw_psl.1.0.0.UPF: wavefunction(s)  1S renormalized

     IMPORTANT: XC functional enforced from input :
     Exchange-correlation= BEEF-VDW
                           (   1   4  43  14   2   0   0)
     Any further DFT definition will be discarded
     Please, verify this is what you really want

     Subspace diagonalization in iterative solution of the eigenvalue problem:
     a serial algorithm will be used

     bravais-lattice index     =            0
     lattice parameter (alat)  =      16.0349  a.u.
     unit-cell volume          =   11303.8339 (a.u.)^3
     number of atoms/cell      =           39
     number of atomic types    =            4
     number of electrons       =       371.00
     number of Kohn-Sham states=          223
     kinetic-energy cutoff     =      60.0000  Ry
     charge density cutoff     =     240.0000  Ry
     scf convergence threshold =      1.0E-06
     mixing beta               =       0.7000
     number of iterations used =            8  local-TF  mixing
     Exchange-correlation= BEEF-VDW
                           (   1   4  43  14   2   0   0)

     celldm(1)=  16.034858  celldm(2)=   0.000000  celldm(3)=   0.000000
     celldm(4)=   0.000000  celldm(5)=   0.000000  celldm(6)=   0.000000

     crystal axes: (cart. coord. in units of alat)
               a(1) = (   1.000000   0.000000   0.000000 )
               a(2) = (   0.500000   0.866025   0.000000 )
               a(3) = (   0.000000   0.000000   3.165919 )

     reciprocal axes: (cart. coord. in units 2 pi/alat)
               b(1) = (  1.000000 -0.577350  0.000000 )
               b(2) = (  0.000000  1.154701  0.000000 )
               b(3) = (  0.000000  0.000000  0.315864 )

     PseudoPot. # 1 for Pt read from file:
     /users/bkreitz1/quantum-espresso/potentials/Pt.pbe-n-kjpaw_psl.1.0.0.UPF
     MD5 check sum: 04dc8a03c51ece93fc7b5889c2958091
     Pseudo is Projector augmented-wave + core cor, Zval = 10.0
     Generated using 'atomic' code by A. Dal Corso  v.6.7MaX
     Shape of augmentation charge: PSQ
     Using radial grid of 1277 points,  6 beta functions with:
                l(1) =   0
                l(2) =   0
                l(3) =   1
                l(4) =   1
                l(5) =   2
                l(6) =   2
     Q(r) pseudized with 0 coefficients

     PseudoPot. # 2 for C  read from file:
     /users/bkreitz1/quantum-espresso/potentials/C.pbe-n-kjpaw_psl.1.0.0.UPF
     MD5 check sum: a169b0ebad56f5ec0d79c4633f80bf22
     Pseudo is Projector augmented-wave + core cor, Zval =  4.0
     Generated using 'atomic' code by A. Dal Corso  v.6.7MaX
     Shape of augmentation charge: PSQ
     Using radial grid of 1073 points,  4 beta functions with:
                l(1) =   0
                l(2) =   0
                l(3) =   1
                l(4) =   1
     Q(r) pseudized with 0 coefficients

     PseudoPot. # 3 for O  read from file:
     /users/bkreitz1/quantum-espresso/potentials/O.pbe-nl-kjpaw_psl.1.0.0.UPF
     MD5 check sum: eef08af8b58d9ec80f8fdb78829eb7cf
     Pseudo is Projector augmented-wave + core cor, Zval =  6.0
     Generated using 'atomic' code by A. Dal Corso  v.6.7MaX
     Shape of augmentation charge: PSQ
     Using radial grid of 1095 points,  4 beta functions with:
                l(1) =   0
                l(2) =   0
                l(3) =   1
                l(4) =   1
     Q(r) pseudized with 0 coefficients

     PseudoPot. # 4 for H  read from file:
     /users/bkreitz1/quantum-espresso/potentials/H.pbe-kjpaw_psl.1.0.0.UPF
     MD5 check sum: ae98473e6dc62675f0d0baffdab24f65
     Pseudo is Projector augmented-wave, Zval =  1.0
     Generated using 'atomic' code by A. Dal Corso  v.6.7MaX
     Shape of augmentation charge: PSQ
     Using radial grid of  929 points,  2 beta functions with:
                l(1) =   0
                l(2) =   0
     Q(r) pseudized with 0 coefficients

     atomic species   valence    mass     pseudopotential
        Pt            10.00   195.08400     Pt( 1.00)
        C              4.00    12.01100     C ( 1.00)
        O              6.00    15.99900     O ( 1.00)
        H              1.00     1.00800     H ( 1.00)

     No symmetry found

   Cartesian axes

     site n.     atom                  positions (alat units)
         1           Pt  tau(   1) = (   0.0000000   0.0000000   1.0017346  )
         2           Pt  tau(   2) = (   0.3333333   0.0000000   1.0017346  )
         3           Pt  tau(   3) = (   0.6666667   0.0000000   1.0017346  )
         4           Pt  tau(   4) = (   0.1666667   0.2886751   1.0017346  )
         5           Pt  tau(   5) = (   0.5000000   0.2886751   1.0017346  )
         6           Pt  tau(   6) = (   0.8333333   0.2886751   1.0017346  )
         7           Pt  tau(   7) = (   0.3333333   0.5773503   1.0017346  )
         8           Pt  tau(   8) = (   0.6666667   0.5773503   1.0017346  )
         9           Pt  tau(   9) = (   1.0000000   0.5773503   1.0017346  )
        10           Pt  tau(  10) = (   0.1666667   0.0962250   1.2739001  )
        11           Pt  tau(  11) = (   0.5000000   0.0962250   1.2739001  )
        12           Pt  tau(  12) = (   0.8333333   0.0962250   1.2739001  )
        13           Pt  tau(  13) = (   0.3333333   0.3849002   1.2739001  )
        14           Pt  tau(  14) = (   0.6666667   0.3849002   1.2739001  )
        15           Pt  tau(  15) = (   1.0000000   0.3849002   1.2739001  )
        16           Pt  tau(  16) = (   0.5000000   0.6735753   1.2739001  )
        17           Pt  tau(  17) = (   0.8333333   0.6735753   1.2739001  )
        18           Pt  tau(  18) = (   1.1666667   0.6735753   1.2739001  )
        19           Pt  tau(  19) = (   0.0010655   0.1920541   1.5458993  )
        20           Pt  tau(  20) = (   0.3326883   0.1920805   1.5459774  )
        21           Pt  tau(  21) = (   0.6668643   0.1922285   1.5424479  )
        22           Pt  tau(  22) = (   0.1668345   0.4793861   1.5451017  )
        23           Pt  tau(  23) = (   0.4999050   0.4814031   1.5424386  )
        24           Pt  tau(  24) = (   0.8336514   0.4813038   1.5422623  )
        25           Pt  tau(  25) = (   0.3351488   0.7708412   1.5458243  )
        26           Pt  tau(  26) = (   0.6668549   0.7709158   1.5458990  )
        27           Pt  tau(  27) = (   0.9985813   0.7708060   1.5451081  )
        28           Pt  tau(  28) = (  -0.0063006  -0.0036445   1.8335825  )
        29           Pt  tau(  29) = (   0.3374454  -0.0016955   1.8329538  )
        30           Pt  tau(  30) = (   0.6658484   0.0000053   1.8176664  )
        31           Pt  tau(  31) = (   0.1672585   0.2930822   1.8329543  )
        32           Pt  tau(  32) = (   0.5033269   0.2905937   1.8171146  )
        33           Pt  tau(  33) = (   0.8306602   0.2904224   1.8165097  )
        34           Pt  tau(  34) = (   0.3329341   0.5766259   1.8176600  )
        35           Pt  tau(  35) = (   0.6668444   0.5741524   1.8165017  )
        36           Pt  tau(  36) = (   0.9998551   0.5772581   1.8171623  )
        37           C   tau(  37) = (   0.1617851   0.0934032   1.9649019  )
        38           O   tau(  38) = (   0.1599303   0.0923284   2.1228243  )
        39           H   tau(  39) = (   0.2528583   0.1459867   2.1649458  )

     number of k points=    13  Marzari-Vanderbilt smearing, width (Ry)=  0.0200
                       cart. coord. in units 2pi/alat
        k(    1) = (   0.0000000   0.0000000   0.0000000), wk =   0.0800000
        k(    2) = (   0.0000000   0.2309401   0.0000000), wk =   0.1600000
        k(    3) = (   0.0000000   0.4618802   0.0000000), wk =   0.1600000
        k(    4) = (   0.2000000  -0.1154701   0.0000000), wk =   0.1600000
        k(    5) = (   0.2000000   0.1154701   0.0000000), wk =   0.1600000
        k(    6) = (   0.2000000   0.3464102   0.0000000), wk =   0.1600000
        k(    7) = (   0.2000000  -0.5773503   0.0000000), wk =   0.1600000
        k(    8) = (   0.2000000  -0.3464102   0.0000000), wk =   0.1600000
        k(    9) = (   0.4000000  -0.2309401   0.0000000), wk =   0.1600000
        k(   10) = (   0.4000000  -0.0000000   0.0000000), wk =   0.1600000
        k(   11) = (   0.4000000   0.2309401   0.0000000), wk =   0.1600000
        k(   12) = (   0.4000000  -0.6928203   0.0000000), wk =   0.1600000
        k(   13) = (   0.4000000  -0.4618802   0.0000000), wk =   0.1600000

     Check: negative core charge=   -0.000001

     Initial potential from superposition of free atoms

     starting charge  370.99384, renormalised to  371.00000

     negative rho (up, down):  1.234E-02 0.000E+00

     %%%%%%%%%%%%%%%%%%%%%%%%%%%%%%%%%%%%%%%%%%%%%%%%%%%%%%%%%%%%%%%%%%%%%%%%
     %                                                                      %
     % You are using vdW-DF, which was implemented by the Thonhauser group. %
     % Please cite the following two papers that made this development      %
     % possible and the two reviews that describe the various versions:     %
     %                                                                      %
     %   T. Thonhauser et al., PRL 115, 136402 (2015).                      %
     %   T. Thonhauser et al., PRB 76, 125112 (2007).                       %
     %   K. Berland et al., Rep. Prog. Phys. 78, 066501 (2015).             %
     %   D.C. Langreth et al., J. Phys.: Condens. Matter 21, 084203 (2009). %
     %                                                                      %
     %                                                                      %
     % If you are calculating the stress with vdW-DF, please also cite:     %
     %                                                                      %
     %   R. Sabatini et al., J. Phys.: Condens. Matter 24, 424209 (2012).   %
     %                                                                      %
     %%%%%%%%%%%%%%%%%%%%%%%%%%%%%%%%%%%%%%%%%%%%%%%%%%%%%%%%%%%%%%%%%%%%%%%%

     Starting wfcs are  333 randomized atomic wfcs
     Checking if some PAW data can be deallocated...

     Self-consistent Calculation

     iteration #  1     ecut=    60.00 Ry     beta= 0.70
     Davidson diagonalization with overlap
     ethr =  1.00E-02,  avg # of iterations =  2.4

     Threshold (ethr) on eigenvalues was too large:
     Diagonalizing with lowered threshold

     Davidson diagonalization with overlap
     ethr =  5.14E-04,  avg # of iterations =  4.0

[...]

     total energy              =  -27816.68461686 Ry
     estimated scf accuracy    <       2.13334425 Ry

[...]

     iteration #  7     ecut=    60.00 Ry     beta= 0.70
     Davidson diagonalization with overlap
     c_bands:  1 eigenvalues not converged
     c_bands:  2 eigenvalues not converged
     c_bands:  2 eigenvalues not converged
     ethr =  2.30E-06,  avg # of iterations = 16.5

[...]

     iteration # 12     ecut=    60.00 Ry     beta= 0.70
     Davidson diagonalization with overlap
     c_bands:  1 eigenvalues not converged
     ethr =  9.23E-08,  avg # of iterations =  5.1

[...]

     total energy              =  -27816.99656496 Ry
     estimated scf accuracy    <       0.00000129 Ry

     iteration # 18     ecut=    60.00 Ry     beta= 0.70
     Davidson diagonalization with overlap
     ethr =  3.47E-10,  avg # of iterations =  5.3

[...]

     End of self-consistent calculation

          k = 0.0000 0.0000 0.0000 ( 88781 PWs)   bands (ev):

   -21.0753 -10.6867  -7.5637  -6.8078  -5.5300  -5.1901  -4.9149  -4.4995
    -4.4695  -4.4611  -4.4549  -4.4222  -4.4169  -4.3779  -4.3084  -3.9275
    -3.9136  -3.9033  -3.8963  -3.8530  -3.8437  -3.5649  -3.4637  -3.4571
    -3.4495  -3.3636  -3.3483  -3.2475  -3.2364  -3.2345  -3.2260  -3.1622
    -3.1246  -3.0949  -3.0332  -3.0299  -3.0122  -3.0108  -2.9718  -2.9518
    -2.9481  -2.9442  -2.9107  -2.8978  -2.6959  -2.4361  -2.3943  -2.3755
    -2.3731  -2.3617  -2.3615  -2.3047  -2.3031  -2.2935  -2.1732  -2.1379
    -2.1367  -2.0728  -2.0328  -1.9063  -1.6581  -1.6531  -1.6315  -1.5747
    -1.5716  -1.5245  -1.5242  -1.5193  -1.4084  -1.4020  -1.3984  -1.3722
    -1.3688  -1.3683  -1.3524  -1.3315  -1.3197  -1.3190  -1.2759  -1.2706
    -1.2609  -1.2569  -1.2553  -1.1988  -1.1812  -1.1675  -1.1571  -1.1501
    -1.0950  -0.9741  -0.9570  -0.9477  -0.9241  -0.9194  -0.9181  -0.9076
    -0.8842  -0.8467  -0.8399  -0.8347  -0.7402  -0.7378  -0.7357  -0.6975
    -0.6959  -0.5910  -0.5856  -0.5756  -0.5613  -0.5520  -0.5398  -0.4362
    -0.4011  -0.2984  -0.1077  -0.0923  -0.0737  -0.0365  -0.0320  -0.0190
    -0.0166  -0.0120  -0.0005   0.1120   0.1141   0.1695   0.1728   0.1927
     0.2073   0.2098   0.2326   0.2691   0.3155   0.4163   0.4308   0.4585
     0.4594   0.5026   0.5359   0.6604   0.7035   0.7066   0.7218   0.7561
     0.7603   0.7987   0.8374   0.8679   0.8811   0.8936   0.9444   0.9614
     0.9685   0.9797   1.0560   1.0700   1.0862   1.1380   1.1382   1.1521
     1.1555   1.1574   1.1663   1.1827   1.1846   1.1879   1.2620   1.2624
     1.2755   1.2795   1.2842   1.3541   1.3559   1.3679   1.3735   1.3739
     1.4155   1.4172   1.4600   1.5097   1.5139   1.5141   1.5225   1.5233
     1.5332   1.5649   1.5955   1.5983   1.6323   1.6362   1.6592   1.6708
     1.8081   1.8131   1.9176   1.9229   1.9272   1.9606   1.9617   1.9790
     2.4394   2.5432   2.6217   2.7372   2.8271   2.8285   2.8607   3.9759
     4.2147   4.7504   5.1169   5.1345   5.1518   5.5145   5.6352   5.9630
     6.6600   6.6921   6.7537   6.7623   6.7888   6.9098   6.9423

[...]

          k = 0.4000-0.4619 0.0000 ( 88692 PWs)   bands (ev):

   -21.0753 -10.6808  -7.5027  -5.9311  -5.8651  -5.3370  -5.1493  -4.9107
    -4.6135  -4.5137  -4.1316  -4.1108  -3.9885  -3.9500  -3.8488  -3.8400
    -3.7466  -3.7328  -3.6671  -3.6307  -3.6089  -3.5987  -3.5797  -3.5435
    -3.4962  -3.4379  -3.4080  -3.3988  -3.3826  -3.3625  -3.2908  -3.2334
    -3.1547  -3.1099  -3.0843  -3.0284  -3.0184  -2.9939  -2.9651  -2.9258
    -2.8050  -2.7787  -2.7279  -2.6062  -2.5843  -2.5532  -2.5266  -2.4515
    -2.4260  -2.3704  -2.3206  -2.2631  -2.2285  -2.2216  -2.1724  -2.1433
    -2.1128  -2.0857  -2.0662  -2.0224  -2.0068  -1.9816  -1.9579  -1.9369
    -1.9107  -1.8893  -1.8684  -1.8164  -1.7841  -1.7317  -1.6912  -1.6500
    -1.6256  -1.5479  -1.5275  -1.5099  -1.4717  -1.4604  -1.4440  -1.4114
    -1.3706  -1.3257  -1.3091  -1.2711  -1.2579  -1.2126  -1.1811  -1.1419
    -1.1187  -1.1100  -1.0869  -1.0551  -0.9921  -0.9618  -0.9205  -0.9099
    -0.8723  -0.8534  -0.8360  -0.8160  -0.8118  -0.7895  -0.7872  -0.7389
    -0.7233  -0.7046  -0.7001  -0.6603  -0.6493  -0.6442  -0.6318  -0.5980
    -0.5742  -0.5182  -0.4039  -0.3753  -0.3166  -0.2837  -0.2488  -0.2054
    -0.1795  -0.1454  -0.1125  -0.0996  -0.0633  -0.0588  -0.0233  -0.0106
     0.0371   0.0587   0.0855   0.1154   0.2085   0.2135   0.2282   0.2876
     0.3168   0.4026   0.4410   0.4501   0.5134   0.5357   0.5558   0.5772
     0.6140   0.6334   0.6466   0.6656   0.6837   0.7518   0.7743   0.7920
     0.8032   0.8577   0.8715   0.9170   0.9236   1.0091   1.0448   1.1096
     1.1569   1.2217   1.2789   1.3227   1.3419   1.3923   1.4069   1.4708
     1.4952   1.5207   1.5627   1.6117   1.6337   1.6572   1.6811   1.6962
     1.7376   1.7600   1.8216   1.8300   1.8359   1.8559   1.8670   1.8975
     1.9074   1.9849   2.0096   2.0676   2.0973   2.1265   2.1306   2.1814
     2.1987   2.2593   2.3676   2.9196   2.9816   3.2385   3.2904   3.3598
     3.5064   3.5943   3.5965   3.8127   4.0068   4.1473   4.3303   4.4193
     4.4505   4.7649   4.7837   4.9529   5.0066   5.1169   5.1546   5.1952
     5.4200   5.5700   5.6734   5.9496   6.0779   6.3167   6.3928

     the Fermi energy is     1.9018 ev

!    total energy              =  -27816.99656467 Ry

     total all-electron energy =  -1326870.372973 Ry
     estimated scf accuracy    <       0.00000100 Ry
     smearing contrib. (-TS)   =       0.00474698 Ry
     internal energy E=F+TS    =  -27817.00131166 Ry

     The total energy is F=E-TS. E is the sum of the following terms:
     one-electron contribution =  -26811.77964266 Ry
     hartree contribution      =   13708.82539542 Ry
     xc contribution           =    -903.27244614 Ry
     ewald contribution        =   11679.89933232 Ry
     one-center paw contrib.   =  -25490.67395059 Ry

     convergence has been achieved in  18 iterations

[...]

     Forces acting on atoms (cartesian axes, Ry/au):

     atom    1 type  1   force =    -0.00020567   -0.00011918   -0.00331980
     atom    2 type  1   force =     0.00018668   -0.00015112   -0.00335943
     atom    3 type  1   force =    -0.00004769    0.00091178   -0.00359146
     atom    4 type  1   force =    -0.00003126    0.00024605   -0.00335984
     atom    5 type  1   force =     0.00005722    0.00004408   -0.00384412
     atom    6 type  1   force =    -0.00010281    0.00020636   -0.00414859
     atom    7 type  1   force =     0.00076640   -0.00050698   -0.00359278
     atom    8 type  1   force =     0.00011869   -0.00019228   -0.00415001
     atom    9 type  1   force =    -0.00123712   -0.00072102   -0.00414839
     atom   10 type  1   force =     0.00005622    0.00002772    0.01000363
     atom   11 type  1   force =     0.00017763   -0.00201842    0.00403977
     atom   12 type  1   force =     0.00009521   -0.00250470    0.00431299
     atom   13 type  1   force =    -0.00165547    0.00115758    0.00400733
     atom   14 type  1   force =     0.00001818    0.00000666    0.00184246
     atom   15 type  1   force =     0.00207463    0.00125735    0.00358825
     atom   16 type  1   force =    -0.00211566    0.00133828    0.00429818
     atom   17 type  1   force =     0.00212843    0.00116660    0.00360036
     atom   18 type  1   force =    -0.00013725   -0.00007635   -0.00555203
     atom   19 type  1   force =    -0.00020711   -0.00011589    0.00041788
     atom   20 type  1   force =     0.00000777   -0.00003046    0.00017177
     atom   21 type  1   force =    -0.00021832    0.00022053    0.00008426
     atom   22 type  1   force =    -0.00009317    0.00026430   -0.00039500
     atom   23 type  1   force =     0.00011222   -0.00029913    0.00010405
     atom   24 type  1   force =    -0.00026288   -0.00013479    0.00009460
     atom   25 type  1   force =    -0.00022542   -0.00010614    0.00033129
     atom   26 type  1   force =    -0.00017443   -0.00011647    0.00042013
     atom   27 type  1   force =     0.00017211   -0.00018543   -0.00040787
     atom   28 type  1   force =    -0.00060105   -0.00034764   -0.00001091
     atom   29 type  1   force =    -0.00022067   -0.00000283   -0.00021036
     atom   30 type  1   force =     0.00014496   -0.00003363    0.00029400
     atom   31 type  1   force =    -0.00011336   -0.00021594   -0.00019263
     atom   32 type  1   force =    -0.00021950   -0.00013713    0.00001343
     atom   33 type  1   force =    -0.00037132   -0.00023516    0.00010271
     atom   34 type  1   force =     0.00004972    0.00015923    0.00030804
     atom   35 type  1   force =    -0.00037727   -0.00019424    0.00010622
     atom   36 type  1   force =    -0.00026856   -0.00013621    0.00044837
     atom   37 type  2   force =     0.00456481    0.00263659    0.00149828
     atom   38 type  3   force =     0.00383369    0.00221680    0.00352170
     atom   39 type  4   force =    -0.00567858   -0.00327878   -0.00332650

     Total force =     0.010918     Total SCF correction =     0.001985
     SCF correction compared to forces is large: reduce conv_thr to get better values

[...]

     negative rho (up, down):  1.332E-02 0.000E+00

     negative rho (up, down):  1.332E-02 0.000E+00
 BEEFens 2000 ensemble energies
             -0.604023747513518E+02
             -0.360825859094700E+01
             -0.157957924142811E+02
              0.427788796959776E+02
             -0.220380959025402E+02
             -0.204864935579553E+02
             -0.350154424200730E+02
             -0.861083436920775E+02
             -0.464280760489055E+02
             -0.471977209700462E+02
             -0.367813351179121E+02
              0.221528346279488E+01
              0.404101790021846E+01
              0.769076682625786E+01
              0.264623330436532E+01
              0.473061736023828E+02
             -0.208366126225018E+02
             -0.230455037344221E+02
              0.191818040220492E+02
             -0.111962859866457E+03
              0.534141939107843E+02
             -0.289371304387757E+02
             -0.332878043343163E+01
             -0.113938228110474E+02
             -0.888681971703261E+01
             -0.465273723518439E+01
              0.879510418839998E+02
             -0.185621496429372E+02
             -0.899294750430215E+01
             -0.516032693507921E+02
              0.813646836984062E+02
             -0.187794187009683E+02
             -0.373487398818642E+02
              0.248917672600729E+02
             -0.283893526336590E+01
              0.162439668266916E+02
             -0.488557977972431E+01
              0.108459411830883E+02
              0.286138186135164E+02
             -0.102936309677563E+03
              0.556298594800567E+02
              0.141764610385018E+02
             -0.162331234520121E+01
             -0.360640119828036E+02
              0.122681547003408E+02
             -0.145824307541272E+02
              0.396314232846407E+02
              0.363613325043336E+02
             -0.307887182032820E+02
             -0.273851992706760E+02
             -0.327113310473035E+02
             -0.350494742136785E+02
              0.134819750227267E+02
             -0.488939849966847E+02
              0.114798884052973E+02
              0.620561724471029E+02
              0.631974553533372E+02
              0.354729989944520E+02
              0.153672661257912E+02
              0.268886618112176E+02
[...]
             -0.703023403883843E+02
             -0.947409856476611E+00
             -0.245915951507133E+01
             -0.877902855602383E+01
             -0.181682974719649E+01
             -0.650426260701018E+02
             -0.210996280970153E+02
              0.531026687067822E+01
              0.889259003241426E+01
              0.466715371101253E+02
             -0.395838651285588E+02
              0.655869937918561E+02
             -0.423845783908223E+02
              0.208934751416976E+02
              0.348441700987592E+02

 BEEF-vdW xc energy contributions
           1 :   -780.210468665843
           2 :    717.172346044006
           3 :   -607.869795246730
           4 :    478.949296929383
           5 :   -357.638964085612
           6 :    263.679014870136
           7 :   -204.786031669117
           8 :    176.578248313382
           9 :   -166.534808718668
          10 :    160.102320011193
          11 :   -146.460810759691
          12 :    121.773521411951
          13 :   -89.0621616388946
          14 :    55.3223120783175
          15 :   -27.5512472900766
          16 :    9.48745601976748
          17 :  -0.327148688348757
          18 :   -4.32210402131489
          19 :    9.95167261891038
          20 :   -20.4415737243638
          21 :    36.3805726239591
          22 :   -55.0824443606783
          23 :    72.1197732466186
          24 :   -83.5385345178175
          25 :    87.6648846404001
          26 :   -85.7066884221870
          27 :    80.9650807027051
          28 :   -77.1350898294920
          29 :    76.5557295065386
          30 :   -79.2332401652041
          31 :   -85.4004884270604
          32 :   -65.5284771908974

     Writing output data file ./pwscf.save/

     General routines

     Parallel routines

   This run was terminated on:  19:24:34  20Dec2022

   JOB DONE.