     Program PWSCF v.6.7MaX starts on 20Dec2022 at 15:50:30

     Reading input from h-ensemble.in
Warning: card &CELL ignored
Warning: card / ignored

     Current dimensions of program PWSCF are:
     Max number of different atomic species (ntypx) = 10
     Max number of k-points (npk) =  40000
     Max angular momentum in pseudopotentials (lmaxx) =  3
     file Pt.pbe-n-kjpaw_psl.1.0.0.UPF: wavefunction(s)  6S 5D renormalized
     file H.pbe-kjpaw_psl.1.0.0.UPF: wavefunction(s)  1S renormalized

     IMPORTANT: XC functional enforced from input :
     Exchange-correlation= BEEF-VDW
                           (   1   4  43  14   2   0   0)
     Any further DFT definition will be discarded
     Please, verify this is what you really want

     Subspace diagonalization in iterative solution of the eigenvalue problem:
     a serial algorithm will be used

     bravais-lattice index     =            0
     lattice parameter (alat)  =      16.0349  a.u.
     unit-cell volume          =   10431.5843 (a.u.)^3
     number of atoms/cell      =           37
     number of atomic types    =            2
     number of electrons       =       361.00
     number of Kohn-Sham states=          217
     kinetic-energy cutoff     =      60.0000  Ry
     charge density cutoff     =     240.0000  Ry
     scf convergence threshold =      1.0E-06
     mixing beta               =       0.7000
     number of iterations used =            8  local-TF  mixing
     Exchange-correlation= BEEF-VDW
                           (   1   4  43  14   2   0   0)

     celldm(1)=  16.034858  celldm(2)=   0.000000  celldm(3)=   0.000000
     celldm(4)=   0.000000  celldm(5)=   0.000000  celldm(6)=   0.000000

     crystal axes: (cart. coord. in units of alat)
               a(1) = (   1.000000   0.000000   0.000000 )
               a(2) = (   0.500000   0.866025   0.000000 )
               a(3) = (   0.000000   0.000000   2.921624 )

     reciprocal axes: (cart. coord. in units 2 pi/alat)
               b(1) = (  1.000000 -0.577350  0.000000 )
               b(2) = (  0.000000  1.154701  0.000000 )
               b(3) = (  0.000000  0.000000  0.342275 )

     PseudoPot. # 1 for Pt read from file:
     /users/bkreitz1/quantum-espresso/potentials/Pt.pbe-n-kjpaw_psl.1.0.0.UPF
     MD5 check sum: 04dc8a03c51ece93fc7b5889c2958091
     Pseudo is Projector augmented-wave + core cor, Zval = 10.0
     Generated using 'atomic' code by A. Dal Corso  v.6.7MaX
     Shape of augmentation charge: PSQ
     Using radial grid of 1277 points,  6 beta functions with:
                l(1) =   0
                l(2) =   0
                l(3) =   1
                l(4) =   1
                l(5) =   2
                l(6) =   2
     Q(r) pseudized with 0 coefficients

     PseudoPot. # 2 for H  read from file:
     /users/bkreitz1/quantum-espresso/potentials/H.pbe-kjpaw_psl.1.0.0.UPF
     MD5 check sum: ae98473e6dc62675f0d0baffdab24f65
     Pseudo is Projector augmented-wave, Zval =  1.0
     Generated using 'atomic' code by A. Dal Corso  v.6.7MaX
     Shape of augmentation charge: PSQ
     Using radial grid of  929 points,  2 beta functions with:
                l(1) =   0
                l(2) =   0
     Q(r) pseudized with 0 coefficients

     atomic species   valence    mass     pseudopotential
        Pt            10.00   195.08400     Pt( 1.00)
        H              1.00     1.00800     H ( 1.00)

     No symmetry found

   Cartesian axes

     site n.     atom                  positions (alat units)
         1           Pt  tau(   1) = (   0.0000000   0.0000000   1.0017346  )
         2           Pt  tau(   2) = (   0.3333333   0.0000000   1.0017346  )
         3           Pt  tau(   3) = (   0.6666667   0.0000000   1.0017346  )
         4           Pt  tau(   4) = (   0.1666667   0.2886751   1.0017346  )
         5           Pt  tau(   5) = (   0.5000000   0.2886751   1.0017346  )
         6           Pt  tau(   6) = (   0.8333333   0.2886751   1.0017346  )
         7           Pt  tau(   7) = (   0.3333333   0.5773503   1.0017346  )
         8           Pt  tau(   8) = (   0.6666667   0.5773503   1.0017346  )
         9           Pt  tau(   9) = (   1.0000000   0.5773503   1.0017346  )
        10           Pt  tau(  10) = (   0.1666667   0.0962250   1.2739001  )
        11           Pt  tau(  11) = (   0.5000000   0.0962250   1.2739001  )
        12           Pt  tau(  12) = (   0.8333333   0.0962250   1.2739001  )
        13           Pt  tau(  13) = (   0.3333333   0.3849002   1.2739001  )
        14           Pt  tau(  14) = (   0.6666667   0.3849002   1.2739001  )
        15           Pt  tau(  15) = (   1.0000000   0.3849002   1.2739001  )
        16           Pt  tau(  16) = (   0.5000000   0.6735753   1.2739001  )
        17           Pt  tau(  17) = (   0.8333333   0.6735753   1.2739001  )
        18           Pt  tau(  18) = (   1.1666667   0.6735753   1.2739001  )
        19           Pt  tau(  19) = (   0.0003586   0.1922386   1.5441530  )
        20           Pt  tau(  20) = (   0.3329741   0.1922383   1.5441563  )
        21           Pt  tau(  21) = (   0.6666623   0.1922872   1.5420152  )
        22           Pt  tau(  22) = (   0.1666642   0.4805030   1.5431207  )
        23           Pt  tau(  23) = (   0.4998614   0.4812035   1.5420139  )
        24           Pt  tau(  24) = (   0.8334697   0.4812094   1.5420124  )
        25           Pt  tau(  25) = (   0.3338692   0.7701112   1.5431192  )
        26           Pt  tau(  26) = (   0.6666647   0.7702140   1.5441609  )
        27           Pt  tau(  27) = (   0.9994562   0.7701116   1.5431209  )
        28           Pt  tau(  28) = (  -0.0043209  -0.0024928   1.8213814  )
        29           Pt  tau(  29) = (   0.3376093  -0.0024741   1.8213874  )
        30           Pt  tau(  30) = (   0.6666487   0.0001190   1.8167830  )
        31           Pt  tau(  31) = (   0.1666630   0.2936088   1.8213799  )
        32           Pt  tau(  32) = (   0.5015209   0.2895504   1.8162186  )
        33           Pt  tau(  33) = (   0.8317936   0.2895556   1.8162028  )
        34           Pt  tau(  34) = (   0.3334283   0.5772757   1.8167752  )
        35           Pt  tau(  35) = (   0.6666603   0.5755724   1.8162087  )
        36           Pt  tau(  36) = (   0.9998894   0.5772842   1.8167856  )
        37           H   tau(  37) = (   0.1664898   0.0961220   1.9201068  )

     number of k points=    13  Marzari-Vanderbilt smearing, width (Ry)=  0.0200
                       cart. coord. in units 2pi/alat
        k(    1) = (   0.0000000   0.0000000   0.0000000), wk =   0.0800000
        k(    2) = (   0.0000000   0.2309401   0.0000000), wk =   0.1600000
        k(    3) = (   0.0000000   0.4618802   0.0000000), wk =   0.1600000
        k(    4) = (   0.2000000  -0.1154701   0.0000000), wk =   0.1600000
        k(    5) = (   0.2000000   0.1154701   0.0000000), wk =   0.1600000
        k(    6) = (   0.2000000   0.3464102   0.0000000), wk =   0.1600000
        k(    7) = (   0.2000000  -0.5773503   0.0000000), wk =   0.1600000
        k(    8) = (   0.2000000  -0.3464102   0.0000000), wk =   0.1600000
        k(    9) = (   0.4000000  -0.2309401   0.0000000), wk =   0.1600000
        k(   10) = (   0.4000000  -0.0000000   0.0000000), wk =   0.1600000
        k(   11) = (   0.4000000   0.2309401   0.0000000), wk =   0.1600000
        k(   12) = (   0.4000000  -0.6928203   0.0000000), wk =   0.1600000
        k(   13) = (   0.4000000  -0.4618802   0.0000000), wk =   0.1600000

     Initial potential from superposition of free atoms

     starting charge  360.99388, renormalised to  361.00000

     negative rho (up, down):  1.114E-02 0.000E+00

     %%%%%%%%%%%%%%%%%%%%%%%%%%%%%%%%%%%%%%%%%%%%%%%%%%%%%%%%%%%%%%%%%%%%%%%%
     %                                                                      %
     % You are using vdW-DF, which was implemented by the Thonhauser group. %
     % Please cite the following two papers that made this development      %
     % possible and the two reviews that describe the various versions:     %
     %                                                                      %
     %   T. Thonhauser et al., PRL 115, 136402 (2015).                      %
     %   T. Thonhauser et al., PRB 76, 125112 (2007).                       %
     %   K. Berland et al., Rep. Prog. Phys. 78, 066501 (2015).             %
     %   D.C. Langreth et al., J. Phys.: Condens. Matter 21, 084203 (2009). %
     %                                                                      %
     %                                                                      %
     % If you are calculating the stress with vdW-DF, please also cite:     %
     %                                                                      %
     %   R. Sabatini et al., J. Phys.: Condens. Matter 24, 424209 (2012).   %
     %                                                                      %
     %%%%%%%%%%%%%%%%%%%%%%%%%%%%%%%%%%%%%%%%%%%%%%%%%%%%%%%%%%%%%%%%%%%%%%%%

     Starting wfcs are  325 randomized atomic wfcs
     Checking if some PAW data can be deallocated...

     Self-consistent Calculation

     iteration #  1     ecut=    60.00 Ry     beta= 0.70
     Davidson diagonalization with overlap
     ethr =  1.00E-02,  avg # of iterations =  2.0

     Threshold (ethr) on eigenvalues was too large:
     Diagonalizing with lowered threshold

     Davidson diagonalization with overlap
     ethr =  3.61E-04,  avg # of iterations =  4.0

[...]

     total energy              =  -27755.30546150 Ry
     estimated scf accuracy    <       1.52080485 Ry

[...]

     iteration #  4     ecut=    60.00 Ry     beta= 0.70
     Davidson diagonalization with overlap
     c_bands:  1 eigenvalues not converged
     c_bands:  1 eigenvalues not converged
     c_bands:  1 eigenvalues not converged
     ethr =  2.45E-05,  avg # of iterations = 14.9

[...]

     iteration # 10     ecut=    60.00 Ry     beta= 0.70
     Davidson diagonalization with overlap
     c_bands:  1 eigenvalues not converged
     ethr =  2.51E-08,  avg # of iterations =  6.3

[...]

     total energy              =  -27755.50119061 Ry
     estimated scf accuracy    <       0.00000404 Ry

     iteration # 16     ecut=    60.00 Ry     beta= 0.70
     Davidson diagonalization with overlap
     ethr =  1.12E-09,  avg # of iterations =  1.8

[...]

     End of self-consistent calculation

          k = 0.0000 0.0000 0.0000 ( 81835 PWs)   bands (ev):

    -6.6155  -5.5594  -4.8426  -4.1850  -4.1748  -4.1747  -4.1649  -4.1489
    -4.1489  -4.1474  -3.8288  -3.6164  -3.6164  -3.6067  -3.6056  -3.6055
    -3.5155  -3.1652  -3.1652  -3.1382  -3.1382  -3.1292  -3.0502  -2.9292
    -2.9292  -2.9218  -2.9195  -2.9195  -2.8112  -2.7174  -2.7174  -2.6932
    -2.6932  -2.6859  -2.6794  -2.6739  -2.6662  -2.6661  -2.6395  -2.6394
    -2.2517  -2.0802  -2.0802  -2.0562  -2.0368  -2.0111  -2.0111  -1.9888
    -1.9888  -1.9805  -1.8424  -1.8424  -1.7391  -1.7391  -1.7292  -1.2674
    -1.2674  -1.2578  -1.2469  -1.2468  -1.1916  -1.1481  -1.0823  -1.0823
    -1.0724  -1.0722  -1.0546  -1.0468  -1.0412  -1.0222  -1.0222  -1.0178
    -1.0147  -1.0146  -0.9747  -0.9707  -0.9707  -0.8491  -0.8417  -0.8416
    -0.8342  -0.8341  -0.8320  -0.6769  -0.6613  -0.6613  -0.6547  -0.6546
    -0.6345  -0.6128  -0.6127  -0.5153  -0.5152  -0.4456  -0.4360  -0.4360
    -0.4049  -0.4048  -0.3783  -0.3736  -0.3167  -0.2177  -0.2176  -0.2093
    -0.2056  -0.2038  -0.2038   0.0298   0.2721   0.2723   0.2854   0.2964
     0.2964   0.3078   0.3302   0.3303   0.3428   0.3428   0.3634   0.4396
     0.4396   0.4981   0.5750   0.5751   0.5802   0.5803   0.6019   0.7042
     0.7191   0.7619   0.7619   0.7668   0.7668   1.0095   1.0096   1.0116
     1.0286   1.0287   1.0314   1.0992   1.0993   1.2559   1.2560   1.2743
     1.2783   1.2784   1.2808   1.4055   1.4076   1.4383   1.4385   1.4649
     1.4650   1.4691   1.4829   1.4830   1.4928   1.4928   1.4975   1.5676
     1.5850   1.5853   1.6200   1.6200   1.6424   1.6425   1.6507   1.6915
     1.7145   1.7146   1.7433   1.7433   1.7637   1.7637   1.7731   1.8365
     1.8484   1.8484   1.8607   1.8608   1.8636   1.9329   1.9510   1.9510
     1.9692   1.9692   1.9746   1.9835   2.1737   2.1738   2.2738   2.2739
     2.2779   2.2965   2.2965   2.2987   2.8643   3.1371   3.1501   3.1502
     3.1868   3.1868   3.1927   5.2272   5.4498   5.4499   5.5194   5.5195
     5.5234   7.0119   7.0120   7.0530   7.1103   7.1103   7.1104   7.1812
     7.2141

[...]

          k = 0.4000-0.4619 0.0000 ( 81934 PWs)   bands (ev):

    -5.7002  -5.6228  -5.1504  -4.9327  -4.3806  -4.1653  -3.8456  -3.7880
    -3.7080  -3.6744  -3.5614  -3.5564  -3.4588  -3.4534  -3.3582  -3.3300
    -3.3161  -3.2975  -3.2931  -3.2784  -3.1556  -3.1264  -3.1180  -3.0880
    -3.0821  -3.0758  -2.9846  -2.9008  -2.8589  -2.7476  -2.7239  -2.7195
    -2.7107  -2.6876  -2.6392  -2.5870  -2.4770  -2.4712  -2.3577  -2.2912
    -2.2774  -2.2087  -2.1409  -2.1150  -2.0832  -2.0247  -1.9525  -1.9172
    -1.8831  -1.8603  -1.8397  -1.8093  -1.7884  -1.7459  -1.6794  -1.6732
    -1.6525  -1.6476  -1.6370  -1.6253  -1.5678  -1.5629  -1.5493  -1.4365
    -1.4195  -1.3601  -1.3330  -1.2661  -1.2107  -1.2010  -1.1781  -1.1488
    -1.1199  -1.1123  -1.0577  -1.0458  -1.0154  -0.9873  -0.9542  -0.9049
    -0.8861  -0.8283  -0.8012  -0.7885  -0.7768  -0.7738  -0.6951  -0.6423
    -0.5987  -0.5940  -0.5750  -0.5457  -0.5173  -0.5110  -0.5077  -0.4761
    -0.4707  -0.4593  -0.4274  -0.3847  -0.3721  -0.3652  -0.3629  -0.3514
    -0.3460  -0.3228  -0.2941  -0.2581  -0.2471  -0.0510  -0.0304   0.0400
     0.0651   0.1521   0.1584   0.1735   0.1918   0.2195   0.2613   0.2750
     0.2782   0.2901   0.3536   0.3939   0.4087   0.4303   0.4745   0.4849
     0.5476   0.5612   0.6002   0.6833   0.7418   0.8112   0.8292   0.8488
     0.9011   0.9096   0.9402   0.9607   0.9730   0.9791   0.9966   1.0121
     1.1109   1.1409   1.1445   1.1918   1.1984   1.2205   1.2215   1.2492
     1.2596   1.4033   1.4400   1.4864   1.5476   1.5769   1.6582   1.6672
     1.7091   1.7782   1.7830   1.7994   1.8864   1.8957   1.9727   1.9851
     2.0034   2.0193   2.0215   2.0524   2.0688   2.1048   2.1778   2.1813
     2.2050   2.2241   2.2246   2.2339   2.2423   2.3087   2.4100   2.4394
     2.4498   2.4522   2.4569   2.5179   2.5637   2.6367   2.7412   3.5196
     3.6022   3.6366   3.8074   3.8585   3.9364   3.9791   4.0031   4.3654
     4.5734   4.6118   4.8171   5.0666   5.0792   5.1628   5.2017   5.3741
     5.4857   5.5612   5.6112   5.8790   5.9776   6.0434   6.5281   6.6671
     6.6947

     the Fermi energy is     2.2229 ev

!    total energy              =  -27755.50118973 Ry

     total all-electron energy =  -1326642.266606 Ry
     estimated scf accuracy    <       0.00000069 Ry
     smearing contrib. (-TS)   =       0.00297352 Ry
     internal energy E=F+TS    =  -27755.50416325 Ry

     The total energy is F=E-TS. E is the sum of the following terms:
     one-electron contribution =  -22429.32030624 Ry
     hartree contribution      =   11517.91324505 Ry
     xc contribution           =    -890.74205925 Ry
     ewald contribution        =    9520.61666544 Ry
     one-center paw contrib.   =  -25473.97170825 Ry

     convergence has been achieved in  16 iterations

[...]

     Forces acting on atoms (cartesian axes, Ry/au):

     atom    1 type  1   force =    -0.00021741   -0.00012303   -0.00300145
     atom    2 type  1   force =     0.00020758   -0.00012449   -0.00300409
     atom    3 type  1   force =     0.00001510    0.00060733   -0.00333333
     atom    4 type  1   force =    -0.00000392    0.00024414   -0.00300429
     atom    5 type  1   force =    -0.00006325   -0.00003408   -0.00344636
     atom    6 type  1   force =     0.00006703   -0.00003487   -0.00343017
     atom    7 type  1   force =     0.00053060   -0.00029639   -0.00334011
     atom    8 type  1   force =    -0.00000648    0.00005998   -0.00344495
     atom    9 type  1   force =    -0.00052134   -0.00031187   -0.00334900
     atom   10 type  1   force =    -0.00000703   -0.00000064    0.00607380
     atom   11 type  1   force =    -0.00052989   -0.00078534    0.00298330
     atom   12 type  1   force =     0.00053528   -0.00078683    0.00297515
     atom   13 type  1   force =    -0.00095461   -0.00006729    0.00298013
     atom   14 type  1   force =     0.00000007   -0.00000511    0.00157547
     atom   15 type  1   force =     0.00095617   -0.00007893    0.00296692
     atom   16 type  1   force =    -0.00042037    0.00085722    0.00297718
     atom   17 type  1   force =     0.00041635    0.00086301    0.00297234
     atom   18 type  1   force =     0.00000699    0.00000034   -0.00026840
     atom   19 type  1   force =     0.00002480   -0.00000303   -0.00030206
     atom   20 type  1   force =    -0.00003476    0.00000143   -0.00031282
     atom   21 type  1   force =     0.00000688    0.00004669    0.00016282
     atom   22 type  1   force =    -0.00000350   -0.00002960   -0.00009788
     atom   23 type  1   force =     0.00002568   -0.00002862    0.00017661
     atom   24 type  1   force =    -0.00003433   -0.00004752    0.00016428
     atom   25 type  1   force =     0.00000701    0.00000849   -0.00009529
     atom   26 type  1   force =    -0.00000640    0.00003827   -0.00031381
     atom   27 type  1   force =    -0.00000328    0.00000521   -0.00010158
     atom   28 type  1   force =     0.00080755    0.00047063    0.00104745
     atom   29 type  1   force =    -0.00080135    0.00046345    0.00103649
     atom   30 type  1   force =    -0.00000719    0.00007750    0.00038682
     atom   31 type  1   force =     0.00000081   -0.00091193    0.00103641
     atom   32 type  1   force =     0.00009505    0.00006814    0.00034913
     atom   33 type  1   force =    -0.00010430    0.00006253    0.00036787
     atom   34 type  1   force =     0.00007502   -0.00004997    0.00039082
     atom   35 type  1   force =    -0.00000092   -0.00011522    0.00036922
     atom   36 type  1   force =    -0.00010057   -0.00006315    0.00039011
     atom   37 type  2   force =     0.00004294    0.00002357   -0.00053673

     Total force =     0.002726     Total SCF correction =     0.002521
     SCF correction compared to forces is large: reduce conv_thr to get better values

[...]

     negative rho (up, down):  1.141E-02 0.000E+00

     negative rho (up, down):  1.141E-02 0.000E+00
 BEEFens 2000 ensemble energies
             -0.594961705342747E+02
             -0.355425835924953E+01
             -0.155906867645310E+02
              0.421303010847236E+02
             -0.217495621741660E+02
             -0.202490725587237E+02
             -0.343546687867129E+02
             -0.847110077523835E+02
             -0.459015712741464E+02
             -0.466226014361564E+02
             -0.362523823311781E+02
              0.215771779629572E+01
              0.398920793912384E+01
              0.774429076432321E+01
              0.257616802060423E+01
              0.466316535809270E+02
             -0.205337366882968E+02
             -0.228589661004545E+02
              0.188606635693119E+02
             -0.110381970291343E+03
              0.525911117545153E+02
             -0.286495817414205E+02
             -0.322332926129159E+01
             -0.112600213523502E+02
             -0.889709999625552E+01
             -0.454441749306935E+01
              0.866943671609242E+02
             -0.182549597305397E+02
             -0.885134409490763E+01
             -0.507992302347039E+02
              0.803408279011746E+02
             -0.186739753691198E+02
             -0.367348434946950E+02
              0.245989464023804E+02
             -0.279225321934399E+01
              0.158576463001268E+02
             -0.490875989043826E+01
              0.108360372707515E+02
              0.281321561835210E+02
             -0.101470671163716E+03
              0.548506406834913E+02
              0.140103595729175E+02
             -0.147715145079388E+01
             -0.356019547648667E+02
              0.121029376882194E+02
             -0.143360830784832E+02
              0.389021034314542E+02
              0.358551777689578E+02
             -0.304941293258587E+02
             -0.269160036240108E+02
             -0.322771538489210E+02
             -0.345406860989379E+02
              0.132333181758876E+02
             -0.481221057269041E+02
              0.112502768478254E+02
              0.611994269450504E+02
              0.621354865174674E+02
              0.350246662314665E+02
              0.151120689140250E+02
              0.264482260493389E+02
[...]
             -0.692254667874084E+02
             -0.984403793005754E+00
             -0.249961427151281E+01
             -0.861874432233105E+01
             -0.187678553363185E+01
             -0.641011531578541E+02
             -0.209198103462694E+02
              0.514642076956195E+01
              0.873469281612449E+01
              0.459506556894056E+02
             -0.389736153767047E+02
              0.648028437346762E+02
             -0.418168027951494E+02
              0.205264446513386E+02
              0.342142910699595E+02

 BEEF-vdW xc energy contributions
           1 :   -769.645088836068
           2 :    708.036127971076
           3 :   -600.978642977445
           4 :    474.409772931328
           5 :   -355.092362886609
           6 :    262.571944658660
           7 :   -204.575875988886
           8 :    176.860618029579
           9 :   -167.083512543707
          10 :    160.831986071292
          11 :   -147.338788316281
          12 :    122.735637311306
          13 :   -89.9872248464176
          14 :    56.0724946190779
          15 :   -28.0341431333658
          16 :    9.69662554956813
          17 :  -0.342758673174217
          18 :   -4.37237478856389
          19 :    9.95695431147635
          20 :   -20.3641562631627
          21 :    36.2730288154182
          22 :   -55.0556541029454
          23 :    72.2792720752486
          24 :   -83.9257872872677
          25 :    88.2325327900609
          26 :   -86.3376248458766
          27 :    81.5279572720239
          28 :   -77.5459501627770
          29 :    76.8093796608871
          30 :   -79.3885802788440
          31 :   -84.1085552977390
          32 :   -64.6566297403550

     Writing output data file ./pwscf.save/

     General routines

     Parallel routines

   This run was terminated on:  18:39:38  20Dec2022

   JOB DONE.