     Program PWSCF v.6.7MaX starts on 21Dec2022 at  9:32:36

     Reading input from h2-ensemble.in
Warning: card &CELL ignored
Warning: card / ignored

     Current dimensions of program PWSCF are:
     Max number of different atomic species (ntypx) = 10
     Max number of k-points (npk) =  40000
     Max angular momentum in pseudopotentials (lmaxx) =  3
     file Pt.pbe-n-kjpaw_psl.1.0.0.UPF: wavefunction(s)  6S 5D renormalized
     file H.pbe-kjpaw_psl.1.0.0.UPF: wavefunction(s)  1S renormalized

     IMPORTANT: XC functional enforced from input :
     Exchange-correlation= BEEF-VDW
                           (   1   4  43  14   2   0   0)
     Any further DFT definition will be discarded
     Please, verify this is what you really want

     Subspace diagonalization in iterative solution of the eigenvalue problem:
     a serial algorithm will be used

     bravais-lattice index     =            0
     lattice parameter (alat)  =      16.0349  a.u.
     unit-cell volume          =   11589.6920 (a.u.)^3
     number of atoms/cell      =           38
     number of atomic types    =            2
     number of electrons       =       362.00
     number of Kohn-Sham states=          217
     kinetic-energy cutoff     =      60.0000  Ry
     charge density cutoff     =     240.0000  Ry
     scf convergence threshold =      1.0E-06
     mixing beta               =       0.7000
     number of iterations used =            8  local-TF  mixing
     Exchange-correlation= BEEF-VDW
                           (   1   4  43  14   2   0   0)

     celldm(1)=  16.034858  celldm(2)=   0.000000  celldm(3)=   0.000000
     celldm(4)=   0.000000  celldm(5)=   0.000000  celldm(6)=   0.000000

     crystal axes: (cart. coord. in units of alat)
               a(1) = (   1.000000   0.000000   0.000000 )
               a(2) = (   0.500000   0.866025   0.000000 )
               a(3) = (   0.000000   0.000000   3.245981 )

     reciprocal axes: (cart. coord. in units 2 pi/alat)
               b(1) = (  1.000000 -0.577350  0.000000 )
               b(2) = (  0.000000  1.154701  0.000000 )
               b(3) = (  0.000000  0.000000  0.308073 )

     PseudoPot. # 1 for Pt read from file:
     /users/bkreitz1/quantum-espresso/potentials/Pt.pbe-n-kjpaw_psl.1.0.0.UPF
     MD5 check sum: 04dc8a03c51ece93fc7b5889c2958091
     Pseudo is Projector augmented-wave + core cor, Zval = 10.0
     Generated using 'atomic' code by A. Dal Corso  v.6.7MaX
     Shape of augmentation charge: PSQ
     Using radial grid of 1277 points,  6 beta functions with:
                l(1) =   0
                l(2) =   0
                l(3) =   1
                l(4) =   1
                l(5) =   2
                l(6) =   2
     Q(r) pseudized with 0 coefficients

     PseudoPot. # 2 for H  read from file:
     /users/bkreitz1/quantum-espresso/potentials/H.pbe-kjpaw_psl.1.0.0.UPF
     MD5 check sum: ae98473e6dc62675f0d0baffdab24f65
     Pseudo is Projector augmented-wave, Zval =  1.0
     Generated using 'atomic' code by A. Dal Corso  v.6.7MaX
     Shape of augmentation charge: PSQ
     Using radial grid of  929 points,  2 beta functions with:
                l(1) =   0
                l(2) =   0
     Q(r) pseudized with 0 coefficients

     atomic species   valence    mass     pseudopotential
        Pt            10.00   195.08400     Pt( 1.00)
        H              1.00     1.00800     H ( 1.00)

     No symmetry found

   Cartesian axes

     site n.     atom                  positions (alat units)
         1           Pt  tau(   1) = (   0.0000000   0.0000000   1.0017346  )
         2           Pt  tau(   2) = (   0.3333333   0.0000000   1.0017346  )
         3           Pt  tau(   3) = (   0.6666667   0.0000000   1.0017346  )
         4           Pt  tau(   4) = (   0.1666667   0.2886751   1.0017346  )
         5           Pt  tau(   5) = (   0.5000000   0.2886751   1.0017346  )
         6           Pt  tau(   6) = (   0.8333333   0.2886751   1.0017346  )
         7           Pt  tau(   7) = (   0.3333333   0.5773503   1.0017346  )
         8           Pt  tau(   8) = (   0.6666667   0.5773503   1.0017346  )
         9           Pt  tau(   9) = (   1.0000000   0.5773503   1.0017346  )
        10           Pt  tau(  10) = (   0.1666667   0.0962250   1.2739001  )
        11           Pt  tau(  11) = (   0.5000000   0.0962250   1.2739001  )
        12           Pt  tau(  12) = (   0.8333333   0.0962250   1.2739001  )
        13           Pt  tau(  13) = (   0.3333333   0.3849002   1.2739001  )
        14           Pt  tau(  14) = (   0.6666667   0.3849002   1.2739001  )
        15           Pt  tau(  15) = (   1.0000000   0.3849002   1.2739001  )
        16           Pt  tau(  16) = (   0.5000000   0.6735753   1.2739001  )
        17           Pt  tau(  17) = (   0.8333333   0.6735753   1.2739001  )
        18           Pt  tau(  18) = (   1.1666667   0.6735753   1.2739001  )
        19           Pt  tau(  19) = (  -0.0000116   0.1924649   1.5424852  )
        20           Pt  tau(  20) = (   0.3333270   0.1924559   1.5425204  )
        21           Pt  tau(  21) = (   0.6666851   0.1924653   1.5425043  )
        22           Pt  tau(  22) = (   0.1666442   0.4811291   1.5424881  )
        23           Pt  tau(  23) = (   0.5000160   0.4811332   1.5425034  )
        24           Pt  tau(  24) = (   0.8333387   0.4811266   1.5424653  )
        25           Pt  tau(  25) = (   0.3333350   0.7697962   1.5424985  )
        26           Pt  tau(  26) = (   0.6666671   0.7697799   1.5424955  )
        27           Pt  tau(  27) = (   0.9999972   0.7697722   1.5424983  )
        28           Pt  tau(  28) = (  -0.0000014  -0.0000045   1.8162637  )
        29           Pt  tau(  29) = (   0.3333296  -0.0000193   1.8163104  )
        30           Pt  tau(  30) = (   0.6666707  -0.0000036   1.8163045  )
        31           Pt  tau(  31) = (   0.1666566   0.2886856   1.8163051  )
        32           Pt  tau(  32) = (   0.5000128   0.2886928   1.8163108  )
        33           Pt  tau(  33) = (   0.8333303   0.2886876   1.8162941  )
        34           Pt  tau(  34) = (   0.3333394   0.5773513   1.8162965  )
        35           Pt  tau(  35) = (   0.6666720   0.5773377   1.8162962  )
        36           Pt  tau(  36) = (   0.9999910   0.5773388   1.8162895  )
        37           H   tau(  37) = (   1.4668125   0.8348623   2.2442075  )
        38           H   tau(  38) = (   0.0295977   0.0288616   2.2443963  )

     number of k points=    13  Marzari-Vanderbilt smearing, width (Ry)=  0.0200
                       cart. coord. in units 2pi/alat
        k(    1) = (   0.0000000   0.0000000   0.0000000), wk =   0.0800000
        k(    2) = (   0.0000000   0.2309401   0.0000000), wk =   0.1600000
        k(    3) = (   0.0000000   0.4618802   0.0000000), wk =   0.1600000
        k(    4) = (   0.2000000  -0.1154701   0.0000000), wk =   0.1600000
        k(    5) = (   0.2000000   0.1154701   0.0000000), wk =   0.1600000
        k(    6) = (   0.2000000   0.3464102   0.0000000), wk =   0.1600000
        k(    7) = (   0.2000000  -0.5773503   0.0000000), wk =   0.1600000
        k(    8) = (   0.2000000  -0.3464102   0.0000000), wk =   0.1600000
        k(    9) = (   0.4000000  -0.2309401   0.0000000), wk =   0.1600000
        k(   10) = (   0.4000000  -0.0000000   0.0000000), wk =   0.1600000
        k(   11) = (   0.4000000   0.2309401   0.0000000), wk =   0.1600000
        k(   12) = (   0.4000000  -0.6928203   0.0000000), wk =   0.1600000
        k(   13) = (   0.4000000  -0.4618802   0.0000000), wk =   0.1600000

     Initial potential from superposition of free atoms

     starting charge  361.99387, renormalised to  362.00000

     negative rho (up, down):  1.161E-02 0.000E+00

     %%%%%%%%%%%%%%%%%%%%%%%%%%%%%%%%%%%%%%%%%%%%%%%%%%%%%%%%%%%%%%%%%%%%%%%%
     %                                                                      %
     % You are using vdW-DF, which was implemented by the Thonhauser group. %
     % Please cite the following two papers that made this development      %
     % possible and the two reviews that describe the various versions:     %
     %                                                                      %
     %   T. Thonhauser et al., PRL 115, 136402 (2015).                      %
     %   T. Thonhauser et al., PRB 76, 125112 (2007).                       %
     %   K. Berland et al., Rep. Prog. Phys. 78, 066501 (2015).             %
     %   D.C. Langreth et al., J. Phys.: Condens. Matter 21, 084203 (2009). %
     %                                                                      %
     %                                                                      %
     % If you are calculating the stress with vdW-DF, please also cite:     %
     %                                                                      %
     %   R. Sabatini et al., J. Phys.: Condens. Matter 24, 424209 (2012).   %
     %                                                                      %
     %%%%%%%%%%%%%%%%%%%%%%%%%%%%%%%%%%%%%%%%%%%%%%%%%%%%%%%%%%%%%%%%%%%%%%%%

     Starting wfcs are  326 randomized atomic wfcs
     Checking if some PAW data can be deallocated...

     Self-consistent Calculation

     iteration #  1     ecut=    60.00 Ry     beta= 0.70
     Davidson diagonalization with overlap
     ethr =  1.00E-02,  avg # of iterations =  2.0

     Threshold (ethr) on eigenvalues was too large:
     Diagonalizing with lowered threshold

     Davidson diagonalization with overlap
     ethr =  3.98E-04,  avg # of iterations =  4.1

[...]

     total energy              =  -27756.51935067 Ry
     estimated scf accuracy    <       1.63089827 Ry

[...]

     iteration #  4     ecut=    60.00 Ry     beta= 0.70
     Davidson diagonalization with overlap
     c_bands:  2 eigenvalues not converged
     ethr =  3.01E-05,  avg # of iterations = 10.6

[...]

     iteration #  7     ecut=    60.00 Ry     beta= 0.70
     Davidson diagonalization with overlap
     c_bands:  1 eigenvalues not converged
     c_bands:  1 eigenvalues not converged
     c_bands:  1 eigenvalues not converged
     c_bands:  1 eigenvalues not converged
     c_bands:  1 eigenvalues not converged
     ethr =  1.39E-06,  avg # of iterations = 12.6

[...]

     total energy              =  -27756.69967812 Ry
     estimated scf accuracy    <       0.00000102 Ry

     iteration # 19     ecut=    60.00 Ry     beta= 0.70
     Davidson diagonalization with overlap
     ethr =  2.80E-10,  avg # of iterations =  2.0

[...]

     End of self-consistent calculation

          k = 0.0000 0.0000 0.0000 ( 91005 PWs)   bands (ev):

    -7.3980  -6.0853  -5.0078  -4.9759  -4.9758  -4.9757  -4.9755  -4.9754
    -4.9753  -4.9615  -4.4173  -4.4171  -4.4170  -4.4169  -4.4168  -4.4168
    -3.9429  -3.9423  -3.9422  -3.9420  -3.9419  -3.9419  -3.7312  -3.7260
    -3.7260  -3.7258  -3.7257  -3.7256  -3.5927  -3.5006  -3.5006  -3.4948
    -3.4948  -3.4776  -3.4776  -3.4774  -3.4774  -3.4773  -3.4756  -3.4637
    -3.4635  -2.8815  -2.8815  -2.8516  -2.8516  -2.7925  -2.7923  -2.7922
    -2.7921  -2.7921  -2.7916  -2.6550  -2.6550  -2.5538  -2.5536  -2.0431
    -2.0430  -2.0428  -2.0427  -2.0427  -2.0423  -1.9778  -1.8907  -1.8907
    -1.8580  -1.8580  -1.8462  -1.8462  -1.8286  -1.8248  -1.8248  -1.8248
    -1.8246  -1.8245  -1.8240  -1.7893  -1.7893  -1.6287  -1.6285  -1.6285
    -1.6284  -1.6283  -1.6280  -1.4780  -1.4779  -1.4779  -1.4775  -1.4774
    -1.4773  -1.3774  -1.3774  -1.2790  -1.2790  -1.2140  -1.2140  -1.2033
    -1.2030  -1.1673  -1.1672  -1.1535  -1.1532  -1.0020  -1.0017  -1.0014
    -1.0012  -1.0011  -1.0002  -0.9910  -0.5097  -0.5096  -0.5093  -0.5092
    -0.5091  -0.5091  -0.4327  -0.4323  -0.4318  -0.4317  -0.4316  -0.4312
    -0.3608  -0.3607  -0.1868  -0.1862  -0.1858  -0.1856  -0.1856  -0.1841
    -0.0439  -0.0438  -0.0422  -0.0422  -0.0333  -0.0333   0.2224   0.2226
     0.2227   0.2227   0.2228   0.2230   0.3022   0.3022   0.4861   0.4862
     0.4863   0.4864   0.4865   0.4872   0.6563   0.6564   0.6564   0.6565
     0.6566   0.6566   0.7033   0.7039   0.7041   0.7042   0.7043   0.7069
     0.8343   0.8345   0.8542   0.8542   0.8545   0.8546   0.8547   0.8549
     0.9606   0.9606   0.9608   0.9609   0.9610   0.9611   0.9669   0.9669
     1.0640   1.0640   1.0641   1.0642   1.0642   1.0644   1.1683   1.1685
     1.1746   1.1746   1.1764   1.1764   1.2594   1.3932   1.3932   1.5020
     1.5020   1.5022   1.5022   1.5023   1.5023   2.3541   2.3937   2.3958
     2.3962   2.3967   2.3971   2.4079   4.7190   4.7269   4.7295   4.7305
     4.7317   4.7466   6.2572   6.2583   6.3140   6.3143   6.3148   6.3151
     6.3967

[...]

          k = 0.4000-0.4619 0.0000 ( 90978 PWs)   bands (ev):

    -6.4300  -6.4297  -5.8221  -5.1681  -5.1674  -4.6586  -4.6527  -4.5235
    -4.4900  -4.3801  -4.3800  -4.2723  -4.2721  -4.1460  -4.1452  -4.1448
    -4.1078  -4.1077  -4.0740  -4.0721  -3.9495  -3.9385  -3.9384  -3.8953
    -3.8951  -3.7917  -3.6989  -3.6823  -3.6250  -3.5849  -3.5226  -3.5222
    -3.5038  -3.5034  -3.4882  -3.3735  -3.3731  -3.2804  -3.2802  -3.1060
    -3.0981  -3.0379  -2.9370  -2.9370  -2.8859  -2.8857  -2.7772  -2.7281
    -2.6785  -2.6783  -2.6575  -2.6130  -2.6126  -2.5819  -2.4762  -2.4760
    -2.4460  -2.4459  -2.4366  -2.4363  -2.4357  -2.3626  -2.3625  -2.2311
    -2.2072  -2.1585  -2.1583  -2.0404  -2.0006  -2.0002  -2.0001  -1.9548
    -1.9104  -1.9103  -1.8217  -1.7969  -1.7966  -1.7909  -1.7578  -1.7257
    -1.6767  -1.6765  -1.6370  -1.5780  -1.5776  -1.5568  -1.5564  -1.4475
    -1.4003  -1.4001  -1.3524  -1.3522  -1.3114  -1.3114  -1.2921  -1.2917
    -1.2621  -1.2621  -1.2106  -1.2105  -1.1786  -1.1630  -1.1628  -1.1610
    -1.1606  -1.1401  -1.1098  -1.0437  -1.0407  -1.0401  -0.8329  -0.8245
    -0.7312  -0.7310  -0.6240  -0.6112  -0.6110  -0.5822  -0.5244  -0.5188
    -0.5186  -0.4954  -0.4943  -0.4104  -0.3762  -0.3759  -0.3079  -0.2862
    -0.2836  -0.2240  -0.2221  -0.1719  -0.0310   0.0346   0.0351   0.0559
     0.0561   0.1488   0.1557   0.1560   0.1776   0.1918   0.1942   0.2347
     0.2350   0.3536   0.3541   0.3643   0.4221   0.4225   0.4427   0.4524
     0.4666   0.4680   0.6295   0.6801   0.7048   0.7874   0.7885   0.8712
     0.8713   0.9568   0.9989   1.0054   1.0055   1.1128   1.1131   1.1849
     1.2165   1.2249   1.2364   1.2365   1.2811   1.2824   1.3160   1.3934
     1.3935   1.4176   1.4464   1.4465   1.4519   1.4553   1.5103   1.6516
     1.6586   1.6586   1.6594   1.6595   1.7347   1.8020   1.8485   1.9888
     2.8078   2.8079   3.0511   3.0648   3.0825   3.2129   3.2134   3.2209
     3.6649   3.8203   3.8205   4.2820   4.3115   4.3128   4.4268   4.4272
     4.6420   4.7248   4.8235   4.8623   5.1686   5.2631   5.2642   5.7888
     5.9033

     the Fermi energy is     1.4247 ev

!    total energy              =  -27756.69967849 Ry

     total all-electron energy =  -1326643.465091 Ry
     estimated scf accuracy    <       0.00000073 Ry
     smearing contrib. (-TS)   =       0.00225918 Ry
     internal energy E=F+TS    =  -27756.70193767 Ry

     The total energy is F=E-TS. E is the sum of the following terms:
     one-electron contribution =  -27943.31591757 Ry
     hartree contribution      =   14264.67249759 Ry
     xc contribution           =    -891.43467520 Ry
     ewald contribution        =   12287.33189446 Ry
     one-center paw contrib.   =  -25473.95573696 Ry

     convergence has been achieved in  19 iterations

[...]

     Forces acting on atoms (cartesian axes, Ry/au):

     atom    1 type  1   force =    -0.00001264   -0.00001099   -0.00330386
     atom    2 type  1   force =     0.00000369    0.00000996   -0.00327619
     atom    3 type  1   force =     0.00000811   -0.00001156   -0.00327306
     atom    4 type  1   force =     0.00001538   -0.00000155   -0.00328692
     atom    5 type  1   force =    -0.00001982   -0.00001671   -0.00325359
     atom    6 type  1   force =     0.00000347   -0.00003184   -0.00332405
     atom    7 type  1   force =    -0.00000532    0.00001145   -0.00327006
     atom    8 type  1   force =    -0.00002127    0.00002349   -0.00331516
     atom    9 type  1   force =     0.00002524    0.00001701   -0.00341804
     atom   10 type  1   force =     0.00007741    0.00001624    0.00308768
     atom   11 type  1   force =    -0.00001902    0.00004838    0.00312820
     atom   12 type  1   force =    -0.00006044   -0.00004028    0.00300928
     atom   13 type  1   force =     0.00004755   -0.00004361    0.00310582
     atom   14 type  1   force =    -0.00011405   -0.00006069    0.00300416
     atom   15 type  1   force =     0.00005972   -0.00000025    0.00305304
     atom   16 type  1   force =    -0.00003947   -0.00002715    0.00302139
     atom   17 type  1   force =     0.00001634    0.00006951    0.00308754
     atom   18 type  1   force =     0.00001157    0.00001677    0.00309508
     atom   19 type  1   force =     0.00009172   -0.00008351    0.00002031
     atom   20 type  1   force =     0.00005523   -0.00003409   -0.00003139
     atom   21 type  1   force =    -0.00014487   -0.00010812    0.00001687
     atom   22 type  1   force =     0.00009550   -0.00000976   -0.00004950
     atom   23 type  1   force =    -0.00011530   -0.00007288   -0.00001203
     atom   24 type  1   force =     0.00001858    0.00002933    0.00005760
     atom   25 type  1   force =    -0.00003210    0.00001058   -0.00005434
     atom   26 type  1   force =     0.00002848    0.00012633   -0.00002910
     atom   27 type  1   force =     0.00001498    0.00013295   -0.00006832
     atom   28 type  1   force =     0.00001344    0.00003256   -0.00005182
     atom   29 type  1   force =     0.00009285    0.00013333    0.00025694
     atom   30 type  1   force =    -0.00011034    0.00007483    0.00027146
     atom   31 type  1   force =     0.00013530   -0.00001074    0.00028857
     atom   32 type  1   force =    -0.00006672   -0.00008146    0.00031967
     atom   33 type  1   force =    -0.00007161   -0.00001797    0.00031530
     atom   34 type  1   force =    -0.00001671   -0.00011114    0.00031260
     atom   35 type  1   force =    -0.00002460   -0.00005480    0.00031760
     atom   36 type  1   force =     0.00003641    0.00002908    0.00035367
     atom   37 type  2   force =     0.00010767    0.00012740   -0.00005041
     atom   38 type  2   force =    -0.00008436   -0.00008011   -0.00005493

     Total force =     0.001015     Total SCF correction =     0.001891
     SCF correction compared to forces is large: reduce conv_thr to get better values

[...]

     negative rho (up, down):  1.251E-02 0.000E+00

     negative rho (up, down):  1.251E-02 0.000E+00
 BEEFens 2000 ensemble energies
             -0.595517652710884E+02
             -0.354709581550517E+01
             -0.155926520548608E+02
              0.421753137919409E+02
             -0.217774690283590E+02
             -0.202570207962549E+02
             -0.344126535125042E+02
             -0.848055122159229E+02
             -0.459195867348668E+02
             -0.466551876966665E+02
             -0.362769675693611E+02
              0.216627390532621E+01
              0.397881540552245E+01
              0.773526456932541E+01
              0.257714905554644E+01
              0.466763386945214E+02
             -0.205525907711220E+02
             -0.228497846417802E+02
              0.188783701679624E+02
             -0.110485486017998E+03
              0.526392173779481E+02
             -0.286644351142711E+02
             -0.323369355554930E+01
             -0.112756844144903E+02
             -0.887690540421272E+01
             -0.454157522054945E+01
              0.867815720294739E+02
             -0.182856831598102E+02
             -0.884989296447395E+01
             -0.508424587070162E+02
              0.803899599960625E+02
             -0.186587098226344E+02
             -0.367691784266202E+02
              0.246028970851430E+02
             -0.280056113048073E+01
              0.158884526471693E+02
             -0.491150407889052E+01
              0.108319200228308E+02
              0.281748880175150E+02
             -0.101555368410776E+03
              0.549126088909476E+02
              0.140180769391241E+02
             -0.150464724317629E+01
             -0.356107063547734E+02
              0.121186916694223E+02
             -0.143657441743363E+02
              0.389527725094522E+02
              0.358870974059145E+02
             -0.305067887015828E+02
             -0.269367391656632E+02
             -0.322988196402154E+02
             -0.345826103290673E+02
              0.132694857372670E+02
             -0.481667695280387E+02
              0.112720189676172E+02
              0.612505556315253E+02
              0.622098916578819E+02
              0.350630512227197E+02
              0.151274606244886E+02
              0.264865739874443E+02
[...]
             -0.693013879990217E+02
             -0.956737533204773E+00
             -0.249639655089351E+01
             -0.862547325438857E+01
             -0.188449425608951E+01
             -0.641658169321978E+02
             -0.209149021940087E+02
              0.516985199049690E+01
              0.875705988295911E+01
              0.460010759124881E+02
             -0.390066232190059E+02
              0.648435485794816E+02
             -0.418519820672356E+02
              0.205616928610108E+02
              0.342583903363345E+02

 BEEF-vdW xc energy contributions
           1 :   -770.128793121338
           2 :    708.207155646665
           3 :   -600.828852492399
           4 :    474.143359985997
           5 :   -354.897218145388
           6 :    262.524797592832
           7 :   -204.657129527481
           8 :    177.003607298200
           9 :   -167.216521181918
          10 :    160.907519852059
          11 :   -147.349207076826
          12 :    122.709539239229
          13 :   -89.9661874506079
          14 :    56.0811502042584
          15 :   -28.0648805487752
          16 :    9.71984149301306
          17 :  -0.330179704028410
          18 :   -4.42782179285018
          19 :    10.0363104827727
          20 :   -20.4342284217236
          21 :    36.3036003087508
          22 :   -55.0321950683275
          23 :    72.2095010379257
          24 :   -83.8333638052168
          25 :    88.1405420371899
          26 :   -86.2542479260024
          27 :    81.4411291986142
          28 :   -77.4291303479420
          29 :    76.6357755531099
          30 :   -79.1477702758203
          31 :   -84.1953155675562
          32 :   -64.6655144675428

     Writing output data file ./pwscf.save/

     General routines

     Parallel routines

   This run was terminated on:  13:24:40  21Dec2022

   JOB DONE.