     Program PWSCF v.6.7MaX starts on 27Sep2022 at  8:37:19

     Reading input from h2co-ensemble.in
Warning: card &CELL ignored
Warning: card / ignored

     Current dimensions of program PWSCF are:
     Max number of different atomic species (ntypx) = 10
     Max number of k-points (npk) =  40000
     Max angular momentum in pseudopotentials (lmaxx) =  3
     file Pt.pbe-n-kjpaw_psl.1.0.0.UPF: wavefunction(s)  6S 5D renormalized
     file C.pbe-n-kjpaw_psl.1.0.0.UPF: wavefunction(s)  2S 2P renormalized
     file H.pbe-kjpaw_psl.1.0.0.UPF: wavefunction(s)  1S renormalized
     file O.pbe-nl-kjpaw_psl.1.0.0.UPF: wavefunction(s)  2S 2P renormalized

     IMPORTANT: XC functional enforced from input :
     Exchange-correlation= BEEF-VDW
                           (   1   4  43  14   2   0   0)
     Any further DFT definition will be discarded
     Please, verify this is what you really want

     Subspace diagonalization in iterative solution of the eigenvalue problem:
     a serial algorithm will be used

     bravais-lattice index     =            0
     lattice parameter (alat)  =      16.0349  a.u.
     unit-cell volume          =   11539.9598 (a.u.)^3
     number of atoms/cell      =           40
     number of atomic types    =            4
     number of electrons       =       372.00
     number of Kohn-Sham states=          223
     kinetic-energy cutoff     =      60.0000  Ry
     charge density cutoff     =     240.0000  Ry
     scf convergence threshold =      1.0E-06
     mixing beta               =       0.7000
     number of iterations used =            8  local-TF  mixing
     Exchange-correlation= BEEF-VDW
                           (   1   4  43  14   2   0   0)

     celldm(1)=  16.034858  celldm(2)=   0.000000  celldm(3)=   0.000000
     celldm(4)=   0.000000  celldm(5)=   0.000000  celldm(6)=   0.000000

     crystal axes: (cart. coord. in units of alat)
               a(1) = (   1.000000   0.000000   0.000000 )
               a(2) = (   0.500000   0.866025   0.000000 )
               a(3) = (   0.000000   0.000000   3.232052 )

     reciprocal axes: (cart. coord. in units 2 pi/alat)
               b(1) = (  1.000000 -0.577350  0.000000 )
               b(2) = (  0.000000  1.154701  0.000000 )
               b(3) = (  0.000000  0.000000  0.309401 )

     PseudoPot. # 1 for Pt read from file:
     /users/bkreitz1/quantum-espresso/potentials/Pt.pbe-n-kjpaw_psl.1.0.0.UPF
     MD5 check sum: 04dc8a03c51ece93fc7b5889c2958091
     Pseudo is Projector augmented-wave + core cor, Zval = 10.0
     Generated using 'atomic' code by A. Dal Corso  v.6.7MaX
     Shape of augmentation charge: PSQ
     Using radial grid of 1277 points,  6 beta functions with:
                l(1) =   0
                l(2) =   0
                l(3) =   1
                l(4) =   1
                l(5) =   2
                l(6) =   2
     Q(r) pseudized with 0 coefficients

     PseudoPot. # 2 for C  read from file:
     /users/bkreitz1/quantum-espresso/potentials/C.pbe-n-kjpaw_psl.1.0.0.UPF
     MD5 check sum: a169b0ebad56f5ec0d79c4633f80bf22
     Pseudo is Projector augmented-wave + core cor, Zval =  4.0
     Generated using 'atomic' code by A. Dal Corso  v.6.7MaX
     Shape of augmentation charge: PSQ
     Using radial grid of 1073 points,  4 beta functions with:
                l(1) =   0
                l(2) =   0
                l(3) =   1
                l(4) =   1
     Q(r) pseudized with 0 coefficients

     PseudoPot. # 3 for H  read from file:
     /users/bkreitz1/quantum-espresso/potentials/H.pbe-kjpaw_psl.1.0.0.UPF
     MD5 check sum: ae98473e6dc62675f0d0baffdab24f65
     Pseudo is Projector augmented-wave, Zval =  1.0
     Generated using 'atomic' code by A. Dal Corso  v.6.7MaX
     Shape of augmentation charge: PSQ
     Using radial grid of  929 points,  2 beta functions with:
                l(1) =   0
                l(2) =   0
     Q(r) pseudized with 0 coefficients

     PseudoPot. # 4 for O  read from file:
     /users/bkreitz1/quantum-espresso/potentials/O.pbe-nl-kjpaw_psl.1.0.0.UPF
     MD5 check sum: eef08af8b58d9ec80f8fdb78829eb7cf
     Pseudo is Projector augmented-wave + core cor, Zval =  6.0
     Generated using 'atomic' code by A. Dal Corso  v.6.7MaX
     Shape of augmentation charge: PSQ
     Using radial grid of 1095 points,  4 beta functions with:
                l(1) =   0
                l(2) =   0
                l(3) =   1
                l(4) =   1
     Q(r) pseudized with 0 coefficients

     atomic species   valence    mass     pseudopotential
        Pt            10.00   195.08400     Pt( 1.00)
        C              4.00    12.01100     C ( 1.00)
        H              1.00     1.00800     H ( 1.00)
        O              6.00    15.99900     O ( 1.00)

     No symmetry found

   Cartesian axes

     site n.     atom                  positions (alat units)
         1           Pt  tau(   1) = (   0.0000000   0.0000000   1.0017346  )
         2           Pt  tau(   2) = (   0.3333333   0.0000000   1.0017346  )
         3           Pt  tau(   3) = (   0.6666667   0.0000000   1.0017346  )
         4           Pt  tau(   4) = (   0.1666667   0.2886751   1.0017346  )
         5           Pt  tau(   5) = (   0.5000000   0.2886751   1.0017346  )
         6           Pt  tau(   6) = (   0.8333333   0.2886751   1.0017346  )
         7           Pt  tau(   7) = (   0.3333333   0.5773503   1.0017346  )
         8           Pt  tau(   8) = (   0.6666667   0.5773503   1.0017346  )
         9           Pt  tau(   9) = (   1.0000000   0.5773503   1.0017346  )
        10           Pt  tau(  10) = (   0.1666667   0.0962250   1.2739001  )
        11           Pt  tau(  11) = (   0.5000000   0.0962250   1.2739001  )
        12           Pt  tau(  12) = (   0.8333333   0.0962250   1.2739001  )
        13           Pt  tau(  13) = (   0.3333333   0.3849002   1.2739001  )
        14           Pt  tau(  14) = (   0.6666667   0.3849002   1.2739001  )
        15           Pt  tau(  15) = (   1.0000000   0.3849002   1.2739001  )
        16           Pt  tau(  16) = (   0.5000000   0.6735753   1.2739001  )
        17           Pt  tau(  17) = (   0.8333333   0.6735753   1.2739001  )
        18           Pt  tau(  18) = (   1.1666667   0.6735753   1.2739001  )
        19           Pt  tau(  19) = (  -0.0000763   0.1922478   1.5441500  )
        20           Pt  tau(  20) = (   0.3332243   0.1923365   1.5438150  )
        21           Pt  tau(  21) = (   0.6666563   0.1923117   1.5440516  )
        22           Pt  tau(  22) = (   0.1665761   0.4810744   1.5440536  )
        23           Pt  tau(  23) = (   0.4999581   0.4810892   1.5437582  )
        24           Pt  tau(  24) = (   0.8332748   0.4810619   1.5441725  )
        25           Pt  tau(  25) = (   0.3333459   0.7697121   1.5441596  )
        26           Pt  tau(  26) = (   0.6665283   0.7696785   1.5441472  )
        27           Pt  tau(  27) = (   0.9999614   0.7696454   1.5442080  )
        28           Pt  tau(  28) = (  -0.0000977  -0.0002349   1.8196947  )
        29           Pt  tau(  29) = (   0.3331723  -0.0002399   1.8192328  )
        30           Pt  tau(  30) = (   0.6665501  -0.0002326   1.8195302  )
        31           Pt  tau(  31) = (   0.1664753   0.2885128   1.8190024  )
        32           Pt  tau(  32) = (   0.4998923   0.2884458   1.8184023  )
        33           Pt  tau(  33) = (   0.8331432   0.2885022   1.8194597  )
        34           Pt  tau(  34) = (   0.3331894   0.5771231   1.8190708  )
        35           Pt  tau(  35) = (   0.6665754   0.5771323   1.8192965  )
        36           Pt  tau(  36) = (   0.9998074   0.5771373   1.8195230  )
        37           C   tau(  37) = (   0.4668345   0.2474159   2.2163500  )
        38           H   tau(  38) = (   0.3683818   0.1618989   2.2097066  )
        39           H   tau(  39) = (   0.5870541   0.1966052   2.2129899  )
        40           O   tau(  40) = (   0.4442908   0.3882554   2.2286888  )

     number of k points=    13  Marzari-Vanderbilt smearing, width (Ry)=  0.0050
                       cart. coord. in units 2pi/alat
        k(    1) = (   0.0000000   0.0000000   0.0000000), wk =   0.0800000
        k(    2) = (   0.0000000   0.2309401   0.0000000), wk =   0.1600000
        k(    3) = (   0.0000000   0.4618802   0.0000000), wk =   0.1600000
        k(    4) = (   0.2000000  -0.1154701   0.0000000), wk =   0.1600000
        k(    5) = (   0.2000000   0.1154701   0.0000000), wk =   0.1600000
        k(    6) = (   0.2000000   0.3464102   0.0000000), wk =   0.1600000
        k(    7) = (   0.2000000  -0.5773503   0.0000000), wk =   0.1600000
        k(    8) = (   0.2000000  -0.3464102   0.0000000), wk =   0.1600000
        k(    9) = (   0.4000000  -0.2309401   0.0000000), wk =   0.1600000
        k(   10) = (   0.4000000  -0.0000000   0.0000000), wk =   0.1600000
        k(   11) = (   0.4000000   0.2309401   0.0000000), wk =   0.1600000
        k(   12) = (   0.4000000  -0.6928203   0.0000000), wk =   0.1600000
        k(   13) = (   0.4000000  -0.4618802   0.0000000), wk =   0.1600000

     Check: negative core charge=   -0.000001

     Initial potential from superposition of free atoms

     starting charge  371.99383, renormalised to  372.00000

     negative rho (up, down):  1.155E-02 0.000E+00

     %%%%%%%%%%%%%%%%%%%%%%%%%%%%%%%%%%%%%%%%%%%%%%%%%%%%%%%%%%%%%%%%%%%%%%%%
     %                                                                      %
     % You are using vdW-DF, which was implemented by the Thonhauser group. %
     % Please cite the following two papers that made this development      %
     % possible and the two reviews that describe the various versions:     %
     %                                                                      %
     %   T. Thonhauser et al., PRL 115, 136402 (2015).                      %
     %   T. Thonhauser et al., PRB 76, 125112 (2007).                       %
     %   K. Berland et al., Rep. Prog. Phys. 78, 066501 (2015).             %
     %   D.C. Langreth et al., J. Phys.: Condens. Matter 21, 084203 (2009). %
     %                                                                      %
     %                                                                      %
     % If you are calculating the stress with vdW-DF, please also cite:     %
     %                                                                      %
     %   R. Sabatini et al., J. Phys.: Condens. Matter 24, 424209 (2012).   %
     %                                                                      %
     %%%%%%%%%%%%%%%%%%%%%%%%%%%%%%%%%%%%%%%%%%%%%%%%%%%%%%%%%%%%%%%%%%%%%%%%

     Starting wfcs are  334 randomized atomic wfcs
     Checking if some PAW data can be deallocated...

     Self-consistent Calculation

     iteration #  1     ecut=    60.00 Ry     beta= 0.70
     Davidson diagonalization with overlap
     ethr =  1.00E-02,  avg # of iterations =  2.0

[...]

     total energy              =  -27817.09108570 Ry
     estimated scf accuracy    <       5.40056341 Ry

[...]

     iteration #  7     ecut=    60.00 Ry     beta= 0.70
     Davidson diagonalization with overlap
     c_bands:  2 eigenvalues not converged
     c_bands:  4 eigenvalues not converged
     c_bands:  3 eigenvalues not converged
     c_bands:  4 eigenvalues not converged
     ethr =  1.82E-06,  avg # of iterations = 10.5

[...]

     iteration #  9     ecut=    60.00 Ry     beta= 0.70
     Davidson diagonalization with overlap
     c_bands:  1 eigenvalues not converged
     ethr =  2.05E-07,  avg # of iterations =  5.5

[...]

     total energy              =  -27818.15267220 Ry
     estimated scf accuracy    <       0.00000112 Ry

     iteration # 18     ecut=    60.00 Ry     beta= 0.70
     Davidson diagonalization with overlap
     ethr =  3.01E-10,  avg # of iterations =  2.0

[...]

     End of self-consistent calculation

          k = 0.0000 0.0000 0.0000 ( 90595 PWs)   bands (ev):

   -19.6598  -8.7602  -7.2501  -5.9653  -5.0719  -4.8983  -4.8314  -4.8271
    -4.8267  -4.8259  -4.8248  -4.8238  -4.8233  -4.2792  -4.2777  -4.2775
    -4.2770  -4.2764  -4.2762  -3.8818  -3.8107  -3.8098  -3.8089  -3.8079
    -3.8075  -3.8072  -3.5937  -3.5886  -3.5881  -3.5873  -3.5868  -3.5866
    -3.3666  -3.3651  -3.3646  -3.3632  -3.3628  -3.3627  -3.3434  -3.3429
    -3.3331  -3.3327  -3.2975  -3.2961  -2.9201  -2.7573  -2.7571  -2.7039
    -2.7038  -2.6660  -2.6652  -2.6647  -2.6637  -2.6631  -2.6576  -2.5204
    -2.5203  -2.4125  -2.4122  -1.9293  -1.9291  -1.9282  -1.9262  -1.9261
    -1.9244  -1.8608  -1.7576  -1.7576  -1.7408  -1.7406  -1.7217  -1.7212
    -1.7038  -1.6851  -1.6849  -1.6836  -1.6827  -1.6824  -1.6803  -1.6481
    -1.6479  -1.5111  -1.5096  -1.5090  -1.5081  -1.5078  -1.5066  -1.3160
    -1.3148  -1.3139  -1.3123  -1.3116  -1.3105  -1.2726  -1.2725  -1.1731
    -1.1729  -1.1154  -1.1152  -1.1002  -1.0982  -1.0662  -1.0656  -1.0467
    -1.0432  -0.8838  -0.8806  -0.8798  -0.8778  -0.8764  -0.8761  -0.8611
    -0.3793  -0.3787  -0.3763  -0.3756  -0.3750  -0.3747  -0.3271  -0.3250
    -0.3227  -0.3203  -0.3196  -0.3186  -0.2550  -0.2544  -0.0845  -0.0832
    -0.0797  -0.0757  -0.0754  -0.0694   0.0590   0.0592   0.0802   0.0803
     0.0876   0.0902   0.3481   0.3487   0.3501   0.3510   0.3513   0.3520
     0.4288   0.4293   0.5874   0.5959   0.5974   0.5988   0.5998   0.6009
     0.7284   0.7725   0.7730   0.7734   0.7745   0.7747   0.7758   0.8112
     0.8161   0.8176   0.8184   0.8234   0.8493   0.9479   0.9510   0.9643
     0.9649   0.9668   0.9669   0.9673   0.9677   1.0601   1.0605   1.0612
     1.0617   1.0619   1.0622   1.0830   1.0831   1.1689   1.1695   1.1705
     1.1711   1.1714   1.1719   1.2755   1.2783   1.2915   1.2920   1.2944
     1.2949   1.3868   1.5015   1.5031   1.6049   1.6052   1.6057   1.6059
     1.6064   1.6069   2.4571   2.4813   2.4932   2.4963   2.4987   2.5057
     2.5314   4.3891   4.7991   4.8090   4.8134   4.8233   4.8318   5.0071
     6.2947   6.3757   6.3762   6.4317   6.4322   6.4335   6.4360

[...]

          k = 0.4000-0.4619 0.0000 ( 90636 PWs)   bands (ev):

   -19.6598  -8.7602  -6.2822  -6.2795  -5.6720  -5.0792  -5.0466  -5.0359
    -4.5260  -4.5095  -4.3767  -4.3346  -4.2293  -4.2287  -4.1204  -4.1199
    -4.0206  -4.0161  -3.9918  -3.9629  -3.9500  -3.9486  -3.9482  -3.8688
    -3.8030  -3.7900  -3.7894  -3.7422  -3.7410  -3.6822  -3.5866  -3.5422
    -3.4919  -3.3896  -3.3890  -3.3785  -3.3776  -3.3441  -3.2614  -3.2600
    -3.1461  -3.1424  -2.9751  -2.9562  -2.9271  -2.8935  -2.8095  -2.8088
    -2.7602  -2.7579  -2.6424  -2.5869  -2.5554  -2.5541  -2.5301  -2.4735
    -2.4706  -2.4522  -2.3453  -2.3439  -2.3229  -2.3023  -2.3015  -2.3008
    -2.2977  -2.2293  -2.2272  -2.0991  -2.0905  -2.0260  -2.0234  -1.9307
    -1.8870  -1.8695  -1.8667  -1.8107  -1.7922  -1.7914  -1.7050  -1.6890
    -1.6877  -1.6778  -1.6507  -1.6154  -1.5614  -1.5587  -1.4847  -1.4443
    -1.4418  -1.4397  -1.4385  -1.3136  -1.2675  -1.2653  -1.2390  -1.2379
    -1.1826  -1.1793  -1.1766  -1.1757  -1.1403  -1.1377  -1.1031  -1.1021
    -1.0542  -1.0368  -1.0353  -1.0287  -1.0274  -1.0259  -0.9962  -0.9318
    -0.9285  -0.9073  -0.7049  -0.7028  -0.6175  -0.6169  -0.4975  -0.4952
    -0.4905  -0.4631  -0.4073  -0.4059  -0.4036  -0.3804  -0.3749  -0.2867
    -0.2549  -0.2524  -0.1819  -0.1768  -0.1679  -0.1097  -0.1019  -0.0527
     0.0775   0.1452   0.1483   0.1686   0.1701   0.2529   0.2755   0.2760
     0.3013   0.3085   0.3166   0.3410   0.3432   0.4683   0.4725   0.4802
     0.5330   0.5369   0.5539   0.5696   0.5844   0.5873   0.7287   0.7464
     0.8040   0.8292   0.9040   0.9092   0.9841   0.9855   1.0709   1.1129
     1.1169   1.1188   1.2210   1.2240   1.2978   1.3248   1.3370   1.3435
     1.3460   1.3908   1.3933   1.4345   1.5012   1.5021   1.5314   1.5564
     1.5581   1.5616   1.5714   1.6232   1.7514   1.7698   1.7711   1.7719
     1.7732   1.8410   1.9106   1.9607   2.0922   2.9249   2.9253   3.1425
     3.1673   3.1868   3.3153   3.3184   3.3375   3.7513   3.9355   3.9397
     4.3180   4.3942   4.4120   4.5025   4.5364   4.5996   4.7569   4.8418
     4.9375   5.0280   5.2791   5.3704   5.3899   5.9301   6.0191

     the Fermi energy is     1.5353 ev

!    total energy              =  -27818.15267070 Ry

     total all-electron energy =  -1326871.529075 Ry
     estimated scf accuracy    <       0.00000078 Ry
     smearing contrib. (-TS)   =      -0.00583547 Ry
     internal energy E=F+TS    =  -27818.14683523 Ry

     The total energy is F=E-TS. E is the sum of the following terms:
     one-electron contribution =  -27488.96994494 Ry
     hartree contribution      =   14043.94933883 Ry
     xc contribution           =    -903.84339262 Ry
     ewald contribution        =   12021.34658932 Ry
     one-center paw contrib.   =  -25490.62942581 Ry

     convergence has been achieved in  18 iterations

[...]

     Forces acting on atoms (cartesian axes, Ry/au):

     atom    1 type  1   force =    -0.00004919    0.00012589   -0.00529380
     atom    2 type  1   force =    -0.00000651    0.00002649   -0.00518979
     atom    3 type  1   force =     0.00001892    0.00004852   -0.00516500
     atom    4 type  1   force =     0.00001735   -0.00000196   -0.00524784
     atom    5 type  1   force =    -0.00002119    0.00002444   -0.00523411
     atom    6 type  1   force =    -0.00001433   -0.00004760   -0.00524386
     atom    7 type  1   force =    -0.00003395   -0.00006118   -0.00522686
     atom    8 type  1   force =     0.00000808   -0.00002991   -0.00520222
     atom    9 type  1   force =    -0.00002732    0.00000868   -0.00525941
     atom   10 type  1   force =    -0.00018164   -0.00020638    0.00511973
     atom   11 type  1   force =     0.00002115   -0.00019425    0.00497078
     atom   12 type  1   force =     0.00004748   -0.00011452    0.00562258
     atom   13 type  1   force =    -0.00015345    0.00015042    0.00458406
     atom   14 type  1   force =     0.00016349    0.00011108    0.00491979
     atom   15 type  1   force =    -0.00012474    0.00002614    0.00539643
     atom   16 type  1   force =     0.00002356    0.00020421    0.00458740
     atom   17 type  1   force =    -0.00007076   -0.00006674    0.00508668
     atom   18 type  1   force =    -0.00005717   -0.00002164    0.00508895
     atom   19 type  1   force =    -0.00022131    0.00008238    0.00018659
     atom   20 type  1   force =    -0.00020215   -0.00021553    0.00041078
     atom   21 type  1   force =     0.00028526   -0.00019443    0.00012509
     atom   22 type  1   force =    -0.00006463   -0.00004726    0.00033171
     atom   23 type  1   force =    -0.00004277    0.00016486    0.00047764
     atom   24 type  1   force =     0.00000025   -0.00024761    0.00030347
     atom   25 type  1   force =    -0.00015738    0.00011442    0.00037276
     atom   26 type  1   force =    -0.00000329    0.00003864    0.00028731
     atom   27 type  1   force =     0.00003618    0.00003643    0.00026574
     atom   28 type  1   force =    -0.00012527    0.00009238   -0.00046259
     atom   29 type  1   force =    -0.00015292   -0.00020099    0.00018109
     atom   30 type  1   force =     0.00012798   -0.00013000   -0.00010715
     atom   31 type  1   force =    -0.00031077   -0.00008820   -0.00004360
     atom   32 type  1   force =     0.00009656   -0.00015153   -0.00085732
     atom   33 type  1   force =     0.00021955   -0.00018842   -0.00008632
     atom   34 type  1   force =    -0.00017063    0.00014303   -0.00000663
     atom   35 type  1   force =    -0.00001060    0.00012960   -0.00010981
     atom   36 type  1   force =     0.00006126    0.00009689   -0.00024662
     atom   37 type  2   force =     0.00044400    0.00280599    0.00280654
     atom   38 type  3   force =    -0.00003581    0.00005381   -0.00080643
     atom   39 type  3   force =     0.00026937   -0.00000778   -0.00057697
     atom   40 type  4   force =     0.00039734   -0.00226840   -0.00075879

     Total force =     0.005072     Total SCF correction =     0.003167
     SCF correction compared to forces is large: reduce conv_thr to get better values

[...]

     negative rho (up, down):  1.289E-02 0.000E+00

     negative rho (up, down):  1.289E-02 0.000E+00
 BEEFens 2000 ensemble energies
             -0.604695894102214E+02
             -0.360149875582209E+01
             -0.157872397091101E+02
              0.428341998452400E+02
             -0.220804430185078E+02
             -0.204902934279783E+02
             -0.350916456703631E+02
             -0.862047391855816E+02
             -0.464265089545009E+02
             -0.472013231596936E+02
             -0.368203601138508E+02
              0.226746007245650E+01
              0.402835491838354E+01
              0.767214214556111E+01
              0.264084285905346E+01
              0.473502177784864E+02
             -0.208351458110259E+02
             -0.229906457729772E+02
              0.191871572806518E+02
             -0.112081672399319E+03
              0.534731339593588E+02
             -0.289444481400828E+02
             -0.333104442428137E+01
             -0.114122034890894E+02
             -0.883970072265959E+01
             -0.459982887904917E+01
              0.880302459609446E+02
             -0.186440333679307E+02
             -0.896862798829216E+01
             -0.516407610755224E+02
              0.813591202052653E+02
             -0.187280951716889E+02
             -0.373587392594187E+02
              0.248752830585539E+02
             -0.285235023684021E+01
              0.162939054362542E+02
             -0.487574834324761E+01
              0.108392699081540E+02
              0.287005186459452E+02
             -0.102980606598889E+03
              0.557061887795534E+02
              0.141971101738515E+02
             -0.168282431173577E+01
             -0.360560642050234E+02
              0.122818413307367E+02
             -0.146650276313322E+02
              0.396721526050935E+02
              0.363870392166529E+02
             -0.307770682531343E+02
             -0.273875609858878E+02
             -0.327345340186454E+02
             -0.351070599505060E+02
              0.135610080832714E+02
             -0.489173829539767E+02
              0.115178303132253E+02
              0.621311401565065E+02
              0.633023001707832E+02
              0.355329979149803E+02
              0.153589136571124E+02
              0.269581637600907E+02
[...]
             -0.703899416896052E+02
             -0.876417535775886E+00
             -0.247636407033443E+01
             -0.878502955899808E+01
             -0.184639955168348E+01
             -0.650987029290284E+02
             -0.210515382365780E+02
              0.534737814986535E+01
              0.895798220445258E+01
              0.467318221909308E+02
             -0.396220443536847E+02
              0.655939969297572E+02
             -0.424166475581462E+02
              0.209541256125824E+02
              0.348814449497601E+02

 BEEF-vdW xc energy contributions
           1 :   -780.538718443571
           2 :    717.006246272542
           3 :   -607.164356395950
           4 :    478.050126061091
           5 :   -356.946282918718
           6 :    263.419518033190
           7 :   -204.978764696286
           8 :    177.103520814152
           9 :   -167.220426153683
          10 :    160.792944211413
          11 :   -147.058422752778
          12 :    122.242432373420
          13 :   -89.4068896177085
          14 :    55.5608825723787
          15 :   -27.7045922332105
          16 :    9.58559136171129
          17 :  -0.411793468941141
          18 :   -4.21091970091413
          19 :    9.79948411414227
          20 :   -20.2737419139277
          21 :    36.2538827842661
          22 :   -55.0568141200720
          23 :    72.2267742259013
          24 :   -83.7660002495478
          25 :    87.9636317276893
          26 :   -86.0130421762717
          27 :    81.2319192852948
          28 :   -77.3562702591889
          29 :    76.7631923612888
          30 :   -79.4686743874970
          31 :   -85.4748251711941
          32 :   -65.4822369393476

     Writing output data file ./pwscf.save/

     General routines

     Parallel routines

   This run was terminated on:  12:12:32  27Sep2022

   JOB DONE.