     Program PWSCF v.6.7MaX starts on 20Dec2022 at 15:52:30

     Reading input from h2co-bi-ensemble.in
Warning: card &CELL ignored
Warning: card / ignored

     Current dimensions of program PWSCF are:
     Max number of different atomic species (ntypx) = 10
     Max number of k-points (npk) =  40000
     Max angular momentum in pseudopotentials (lmaxx) =  3
     file Pt.pbe-n-kjpaw_psl.1.0.0.UPF: wavefunction(s)  6S 5D renormalized
     file C.pbe-n-kjpaw_psl.1.0.0.UPF: wavefunction(s)  2S 2P renormalized
     file H.pbe-kjpaw_psl.1.0.0.UPF: wavefunction(s)  1S renormalized
     file O.pbe-nl-kjpaw_psl.1.0.0.UPF: wavefunction(s)  2S 2P renormalized

     IMPORTANT: XC functional enforced from input :
     Exchange-correlation= BEEF-VDW
                           (   1   4  43  14   2   0   0)
     Any further DFT definition will be discarded
     Please, verify this is what you really want

     Subspace diagonalization in iterative solution of the eigenvalue problem:
     a serial algorithm will be used

     bravais-lattice index     =            0
     lattice parameter (alat)  =      16.0349  a.u.
     unit-cell volume          =   11175.8346 (a.u.)^3
     number of atoms/cell      =           40
     number of atomic types    =            4
     number of electrons       =       372.00
     number of Kohn-Sham states=          223
     kinetic-energy cutoff     =      60.0000  Ry
     charge density cutoff     =     240.0000  Ry
     scf convergence threshold =      1.0E-06
     mixing beta               =       0.7000
     number of iterations used =            8  local-TF  mixing
     Exchange-correlation= BEEF-VDW
                           (   1   4  43  14   2   0   0)

     celldm(1)=  16.034858  celldm(2)=   0.000000  celldm(3)=   0.000000
     celldm(4)=   0.000000  celldm(5)=   0.000000  celldm(6)=   0.000000

     crystal axes: (cart. coord. in units of alat)
               a(1) = (   1.000000   0.000000   0.000000 )
               a(2) = (   0.500000   0.866025   0.000000 )
               a(3) = (   0.000000   0.000000   3.130070 )

     reciprocal axes: (cart. coord. in units 2 pi/alat)
               b(1) = (  1.000000 -0.577350  0.000000 )
               b(2) = (  0.000000  1.154701  0.000000 )
               b(3) = (  0.000000  0.000000  0.319482 )

     PseudoPot. # 1 for Pt read from file:
     /users/bkreitz1/quantum-espresso/potentials/Pt.pbe-n-kjpaw_psl.1.0.0.UPF
     MD5 check sum: 04dc8a03c51ece93fc7b5889c2958091
     Pseudo is Projector augmented-wave + core cor, Zval = 10.0
     Generated using 'atomic' code by A. Dal Corso  v.6.7MaX
     Shape of augmentation charge: PSQ
     Using radial grid of 1277 points,  6 beta functions with:
                l(1) =   0
                l(2) =   0
                l(3) =   1
                l(4) =   1
                l(5) =   2
                l(6) =   2
     Q(r) pseudized with 0 coefficients

     PseudoPot. # 2 for C  read from file:
     /users/bkreitz1/quantum-espresso/potentials/C.pbe-n-kjpaw_psl.1.0.0.UPF
     MD5 check sum: a169b0ebad56f5ec0d79c4633f80bf22
     Pseudo is Projector augmented-wave + core cor, Zval =  4.0
     Generated using 'atomic' code by A. Dal Corso  v.6.7MaX
     Shape of augmentation charge: PSQ
     Using radial grid of 1073 points,  4 beta functions with:
                l(1) =   0
                l(2) =   0
                l(3) =   1
                l(4) =   1
     Q(r) pseudized with 0 coefficients

     PseudoPot. # 3 for H  read from file:
     /users/bkreitz1/quantum-espresso/potentials/H.pbe-kjpaw_psl.1.0.0.UPF
     MD5 check sum: ae98473e6dc62675f0d0baffdab24f65
     Pseudo is Projector augmented-wave, Zval =  1.0
     Generated using 'atomic' code by A. Dal Corso  v.6.7MaX
     Shape of augmentation charge: PSQ
     Using radial grid of  929 points,  2 beta functions with:
                l(1) =   0
                l(2) =   0
     Q(r) pseudized with 0 coefficients

     PseudoPot. # 4 for O  read from file:
     /users/bkreitz1/quantum-espresso/potentials/O.pbe-nl-kjpaw_psl.1.0.0.UPF
     MD5 check sum: eef08af8b58d9ec80f8fdb78829eb7cf
     Pseudo is Projector augmented-wave + core cor, Zval =  6.0
     Generated using 'atomic' code by A. Dal Corso  v.6.7MaX
     Shape of augmentation charge: PSQ
     Using radial grid of 1095 points,  4 beta functions with:
                l(1) =   0
                l(2) =   0
                l(3) =   1
                l(4) =   1
     Q(r) pseudized with 0 coefficients

     atomic species   valence    mass     pseudopotential
        Pt            10.00   195.08400     Pt( 1.00)
        C              4.00    12.01100     C ( 1.00)
        H              1.00     1.00800     H ( 1.00)
        O              6.00    15.99900     O ( 1.00)

     No symmetry found

   Cartesian axes

     site n.     atom                  positions (alat units)
         1           Pt  tau(   1) = (   0.0000000   0.0000000   1.0017346  )
         2           Pt  tau(   2) = (   0.3333333   0.0000000   1.0017346  )
         3           Pt  tau(   3) = (   0.6666667   0.0000000   1.0017346  )
         4           Pt  tau(   4) = (   0.1666667   0.2886751   1.0017346  )
         5           Pt  tau(   5) = (   0.5000000   0.2886751   1.0017346  )
         6           Pt  tau(   6) = (   0.8333333   0.2886751   1.0017346  )
         7           Pt  tau(   7) = (   0.3333333   0.5773503   1.0017346  )
         8           Pt  tau(   8) = (   0.6666667   0.5773503   1.0017346  )
         9           Pt  tau(   9) = (   1.0000000   0.5773503   1.0017346  )
        10           Pt  tau(  10) = (   0.1666667   0.0962250   1.2739001  )
        11           Pt  tau(  11) = (   0.5000000   0.0962250   1.2739001  )
        12           Pt  tau(  12) = (   0.8333333   0.0962250   1.2739001  )
        13           Pt  tau(  13) = (   0.3333333   0.3849002   1.2739001  )
        14           Pt  tau(  14) = (   0.6666667   0.3849002   1.2739001  )
        15           Pt  tau(  15) = (   1.0000000   0.3849002   1.2739001  )
        16           Pt  tau(  16) = (   0.5000000   0.6735753   1.2739001  )
        17           Pt  tau(  17) = (   0.8333333   0.6735753   1.2739001  )
        18           Pt  tau(  18) = (   1.1666667   0.6735753   1.2739001  )
        19           Pt  tau(  19) = (   0.0019486   0.1922758   1.5410326  )
        20           Pt  tau(  20) = (   0.3341713   0.1947589   1.5401469  )
        21           Pt  tau(  21) = (   0.6669080   0.1925706   1.5407363  )
        22           Pt  tau(  22) = (   0.1643972   0.4843349   1.5497922  )
        23           Pt  tau(  23) = (   0.5025035   0.4831287   1.5457755  )
        24           Pt  tau(  24) = (   0.8333492   0.4816199   1.5434975  )
        25           Pt  tau(  25) = (   0.3348203   0.7700747   1.5425844  )
        26           Pt  tau(  26) = (   0.6683090   0.7685265   1.5449085  )
        27           Pt  tau(  27) = (   1.0009515   0.7691159   1.5445933  )
        28           Pt  tau(  28) = (   0.0043021   0.0007840   1.8168070  )
        29           Pt  tau(  29) = (   0.3366739   0.0073479   1.8121560  )
        30           Pt  tau(  30) = (   0.6713382   0.0017142   1.8148610  )
        31           Pt  tau(  31) = (   0.1711539   0.2892016   1.8165847  )
        32           Pt  tau(  32) = (   0.5042277   0.2908822   1.8165256  )
        33           Pt  tau(  33) = (   0.8370113   0.2850901   1.8110562  )
        34           Pt  tau(  34) = (   0.3405335   0.5789270   1.8184354  )
        35           Pt  tau(  35) = (   0.6732146   0.5784612   1.8345670  )
        36           Pt  tau(  36) = (   1.0035657   0.5773944   1.8274212  )
        37           C   tau(  37) = (   0.7693845   0.5749005   2.0697038  )
        38           H   tau(  38) = (   0.7381379   0.4551284   2.1076962  )
        39           H   tau(  39) = (   0.7029079   0.6685395   2.1293503  )
        40           O   tau(  40) = (   0.9248221   0.6042317   2.0611192  )

     number of k points=    13  Marzari-Vanderbilt smearing, width (Ry)=  0.0200
                       cart. coord. in units 2pi/alat
        k(    1) = (   0.0000000   0.0000000   0.0000000), wk =   0.0800000
        k(    2) = (   0.0000000   0.2309401   0.0000000), wk =   0.1600000
        k(    3) = (   0.0000000   0.4618802   0.0000000), wk =   0.1600000
        k(    4) = (   0.2000000  -0.1154701   0.0000000), wk =   0.1600000
        k(    5) = (   0.2000000   0.1154701   0.0000000), wk =   0.1600000
        k(    6) = (   0.2000000   0.3464102   0.0000000), wk =   0.1600000
        k(    7) = (   0.2000000  -0.5773503   0.0000000), wk =   0.1600000
        k(    8) = (   0.2000000  -0.3464102   0.0000000), wk =   0.1600000
        k(    9) = (   0.4000000  -0.2309401   0.0000000), wk =   0.1600000
        k(   10) = (   0.4000000  -0.0000000   0.0000000), wk =   0.1600000
        k(   11) = (   0.4000000   0.2309401   0.0000000), wk =   0.1600000
        k(   12) = (   0.4000000  -0.6928203   0.0000000), wk =   0.1600000
        k(   13) = (   0.4000000  -0.4618802   0.0000000), wk =   0.1600000

     Check: negative core charge=   -0.000001

     Initial potential from superposition of free atoms

     starting charge  371.99383, renormalised to  372.00000

     negative rho (up, down):  1.210E-02 0.000E+00

     %%%%%%%%%%%%%%%%%%%%%%%%%%%%%%%%%%%%%%%%%%%%%%%%%%%%%%%%%%%%%%%%%%%%%%%%
     %                                                                      %
     % You are using vdW-DF, which was implemented by the Thonhauser group. %
     % Please cite the following two papers that made this development      %
     % possible and the two reviews that describe the various versions:     %
     %                                                                      %
     %   T. Thonhauser et al., PRL 115, 136402 (2015).                      %
     %   T. Thonhauser et al., PRB 76, 125112 (2007).                       %
     %   K. Berland et al., Rep. Prog. Phys. 78, 066501 (2015).             %
     %   D.C. Langreth et al., J. Phys.: Condens. Matter 21, 084203 (2009). %
     %                                                                      %
     %                                                                      %
     % If you are calculating the stress with vdW-DF, please also cite:     %
     %                                                                      %
     %   R. Sabatini et al., J. Phys.: Condens. Matter 24, 424209 (2012).   %
     %                                                                      %
     %%%%%%%%%%%%%%%%%%%%%%%%%%%%%%%%%%%%%%%%%%%%%%%%%%%%%%%%%%%%%%%%%%%%%%%%

     Starting wfcs are  334 randomized atomic wfcs
     Checking if some PAW data can be deallocated...

     Self-consistent Calculation

     iteration #  1     ecut=    60.00 Ry     beta= 0.70
     Davidson diagonalization with overlap
     ethr =  1.00E-02,  avg # of iterations =  2.0

     Threshold (ethr) on eigenvalues was too large:
     Diagonalizing with lowered threshold

     Davidson diagonalization with overlap
     ethr =  7.56E-04,  avg # of iterations =  2.9

[...]

     total energy              =  -27817.82069513 Ry
     estimated scf accuracy    <       3.01130454 Ry

[...]

     iteration #  4     ecut=    60.00 Ry     beta= 0.70
     Davidson diagonalization with overlap
     c_bands:  1 eigenvalues not converged
     ethr =  9.40E-05,  avg # of iterations = 11.7

[...]

     iteration #  7     ecut=    60.00 Ry     beta= 0.70
     Davidson diagonalization with overlap
     c_bands:  2 eigenvalues not converged
     ethr =  3.20E-06,  avg # of iterations = 10.9

[...]

     total energy              =  -27818.15851491 Ry
     estimated scf accuracy    <       0.00000132 Ry

     iteration # 19     ecut=    60.00 Ry     beta= 0.70
     Davidson diagonalization with overlap
     ethr =  3.54E-10,  avg # of iterations =  1.9

[...]

     End of self-consistent calculation

          k = 0.0000 0.0000 0.0000 ( 87819 PWs)   bands (ev):

   -18.6141  -9.2806  -6.9579  -5.7074  -4.9303  -4.7065  -4.5691  -4.5535
    -4.5416  -4.5392  -4.5234  -4.5173  -4.4993  -4.3163  -4.1085  -3.9904
    -3.9788  -3.9747  -3.9678  -3.9414  -3.8796  -3.5287  -3.5171  -3.5082
    -3.5025  -3.4919  -3.4422  -3.3025  -3.2930  -3.2907  -3.2851  -3.2711
    -3.1812  -3.0841  -3.0764  -3.0698  -3.0636  -3.0558  -3.0536  -3.0395
    -3.0267  -3.0160  -3.0137  -2.9974  -2.9486  -2.4583  -2.4489  -2.4432
    -2.4275  -2.4208  -2.3789  -2.3684  -2.3613  -2.3483  -2.3112  -2.2107
    -2.2084  -2.1330  -2.1277  -1.6874  -1.6680  -1.6529  -1.6232  -1.6034
    -1.5963  -1.5574  -1.4713  -1.4555  -1.4513  -1.4469  -1.4338  -1.4300
    -1.4173  -1.4042  -1.3923  -1.3885  -1.3743  -1.3659  -1.3519  -1.3354
    -1.3273  -1.2922  -1.2334  -1.2191  -1.2089  -1.1989  -1.1768  -1.0618
    -1.0482  -1.0396  -1.0261  -1.0050  -0.9945  -0.9736  -0.9615  -0.9387
    -0.8895  -0.8734  -0.8656  -0.8061  -0.7827  -0.7779  -0.7419  -0.7403
    -0.7136  -0.6883  -0.6082  -0.5965  -0.5705  -0.5647  -0.5562  -0.3573
    -0.2408  -0.2247  -0.1363  -0.1257  -0.1042  -0.1005  -0.0811  -0.0667
    -0.0472  -0.0205   0.0374   0.0497   0.0731   0.0775   0.1371   0.1819
     0.1969   0.2151   0.2350   0.2967   0.3285   0.3735   0.3925   0.4030
     0.4066   0.4373   0.4624   0.5754   0.6384   0.6428   0.6528   0.6595
     0.6667   0.7020   0.7316   0.8570   0.8978   0.9026   0.9111   0.9275
     0.9527   0.9937   1.0469   1.0562   1.0777   1.0869   1.0952   1.1007
     1.1142   1.1228   1.1348   1.1422   1.1526   1.2049   1.2291   1.2397
     1.2454   1.2545   1.2710   1.3195   1.3309   1.3326   1.3459   1.3499
     1.3654   1.3731   1.3795   1.4023   1.4567   1.4630   1.4714   1.4788
     1.4926   1.5033   1.5102   1.5349   1.5746   1.5898   1.6021   1.6170
     1.6258   1.7671   1.7988   1.8830   1.8918   1.9104   1.9304   1.9328
     1.9374   2.0509   2.4593   2.7513   2.8061   2.8160   2.8329   2.8777
     3.5813   4.2263   5.0808   5.1329   5.1504   5.1672   5.5507   5.9784
     6.6015   6.6852   6.7206   6.7352   6.7490   6.7649   6.7849

[...]

          k = 0.4000-0.4619 0.0000 ( 87714 PWs)   bands (ev):

   -18.6141  -9.2809  -6.0050  -5.9760  -5.3931  -5.0007  -4.8092  -4.7237
    -4.4265  -4.2442  -4.1771  -4.0997  -4.0512  -4.0276  -3.9343  -3.8963
    -3.8214  -3.8107  -3.7172  -3.7005  -3.6892  -3.6625  -3.6494  -3.6373
    -3.5831  -3.4945  -3.4911  -3.4756  -3.4438  -3.4175  -3.3675  -3.2740
    -3.2323  -3.1709  -3.1075  -3.0894  -3.0697  -3.0545  -3.0285  -2.9605
    -2.9168  -2.8466  -2.8349  -2.6648  -2.6519  -2.5964  -2.5266  -2.4962
    -2.4619  -2.4380  -2.3326  -2.2951  -2.2610  -2.2552  -2.2337  -2.1799
    -2.1764  -2.1477  -2.0595  -2.0379  -2.0213  -2.0114  -2.0012  -1.9947
    -1.9663  -1.9321  -1.9153  -1.8205  -1.7837  -1.7341  -1.7199  -1.6321
    -1.6064  -1.5746  -1.5588  -1.5213  -1.4995  -1.4730  -1.4504  -1.4186
    -1.3893  -1.3611  -1.3431  -1.3195  -1.2976  -1.2678  -1.2037  -1.1741
    -1.1601  -1.1463  -1.1208  -1.0631  -1.0068  -0.9765  -0.9572  -0.9331
    -0.9154  -0.9035  -0.8814  -0.8593  -0.8516  -0.8202  -0.8040  -0.7998
    -0.7623  -0.7593  -0.7306  -0.7241  -0.7134  -0.6908  -0.6785  -0.6504
    -0.6311  -0.5914  -0.4680  -0.3930  -0.3232  -0.3104  -0.2754  -0.2409
    -0.2035  -0.1742  -0.1649  -0.1443  -0.1090  -0.0875  -0.0570  -0.0329
    -0.0000   0.0267   0.0589   0.1056   0.1458   0.1786   0.2103   0.2607
     0.3282   0.3613   0.4241   0.4469   0.4693   0.5067   0.5468   0.5580
     0.5816   0.5890   0.6162   0.6380   0.6710   0.7016   0.7231   0.7747
     0.7884   0.8164   0.8445   0.8754   0.8923   0.9428   0.9974   1.0260
     1.0753   1.1435   1.1943   1.2448   1.2756   1.2964   1.3384   1.4168
     1.4372   1.4616   1.5002   1.5699   1.6034   1.6215   1.6373   1.6563
     1.6734   1.6916   1.7274   1.7639   1.8008   1.8105   1.8293   1.8513
     1.8631   1.8736   1.9373   2.0250   2.0382   2.0626   2.0785   2.0960
     2.1253   2.1514   2.2641   2.3829   2.4837   3.1251   3.2312   3.2385
     3.5009   3.5805   3.6187   3.6326   3.7619   4.0196   4.2304   4.2519
     4.4262   4.7113   4.8117   4.8363   4.8706   4.9077   5.0637   5.1482
     5.3166   5.4675   5.6635   5.7270   5.9360   6.3104   6.3468

     the Fermi energy is     1.8537 ev

!    total energy              =  -27818.15851419 Ry

     total all-electron energy =  -1326871.534919 Ry
     estimated scf accuracy    <       0.00000045 Ry
     smearing contrib. (-TS)   =       0.00139810 Ry
     internal energy E=F+TS    =  -27818.15991229 Ry

     The total energy is F=E-TS. E is the sum of the following terms:
     one-electron contribution =  -26275.98922674 Ry
     hartree contribution      =   13441.40108069 Ry
     xc contribution           =    -904.02403370 Ry
     ewald contribution        =   11411.10567386 Ry
     one-center paw contrib.   =  -25490.65340640 Ry

     convergence has been achieved in  19 iterations

[...]

     Forces acting on atoms (cartesian axes, Ry/au):

     atom    1 type  1   force =    -0.00007237    0.00042157   -0.00296490
     atom    2 type  1   force =    -0.00014085    0.00032689   -0.00285280
     atom    3 type  1   force =    -0.00027295    0.00109364   -0.00364655
     atom    4 type  1   force =    -0.00014620    0.00036274   -0.00496123
     atom    5 type  1   force =     0.00117573   -0.00083355   -0.00724082
     atom    6 type  1   force =    -0.00082566   -0.00035532   -0.00383933
     atom    7 type  1   force =    -0.00010022   -0.00152353   -0.00237057
     atom    8 type  1   force =    -0.00071561   -0.00064097   -0.00330019
     atom    9 type  1   force =     0.00016346   -0.00049988   -0.00362935
     atom   10 type  1   force =    -0.00009765    0.00053106   -0.00115967
     atom   11 type  1   force =    -0.00046018   -0.00026398    0.00147791
     atom   12 type  1   force =     0.00050883   -0.00038255    0.00018046
     atom   13 type  1   force =    -0.00342521    0.00237639    0.00475376
     atom   14 type  1   force =    -0.00267858    0.00090312    0.00333963
     atom   15 type  1   force =     0.00375798    0.00173034    0.00359769
     atom   16 type  1   force =     0.00065902   -0.00084683    0.00837362
     atom   17 type  1   force =     0.00055062   -0.00031425    0.00849239
     atom   18 type  1   force =    -0.00067345   -0.00287681    0.00877506
     atom   19 type  1   force =     0.00029564   -0.00012301   -0.00038928
     atom   20 type  1   force =     0.00039090    0.00015850   -0.00015435
     atom   21 type  1   force =    -0.00002037    0.00021376   -0.00014696
     atom   22 type  1   force =     0.00050547    0.00003134   -0.00055960
     atom   23 type  1   force =     0.00043963    0.00027201   -0.00049436
     atom   24 type  1   force =    -0.00010322   -0.00004232   -0.00045073
     atom   25 type  1   force =     0.00051391   -0.00040929   -0.00018816
     atom   26 type  1   force =     0.00018493   -0.00021255   -0.00052969
     atom   27 type  1   force =    -0.00020494    0.00025557   -0.00070182
     atom   28 type  1   force =     0.00001610   -0.00001956    0.00023900
     atom   29 type  1   force =     0.00019676   -0.00006274    0.00000177
     atom   30 type  1   force =     0.00023257   -0.00002428   -0.00003578
     atom   31 type  1   force =     0.00000908    0.00022068    0.00012401
     atom   32 type  1   force =     0.00021805    0.00020048    0.00013007
     atom   33 type  1   force =    -0.00002699    0.00006092   -0.00014543
     atom   34 type  1   force =    -0.00005709    0.00006256    0.00016663
     atom   35 type  1   force =     0.00119115    0.00020210   -0.00005507
     atom   36 type  1   force =    -0.00026003    0.00050338    0.00252332
     atom   37 type  2   force =    -0.00073652    0.00001894    0.00463090
     atom   38 type  3   force =    -0.00006767    0.00012792   -0.00086919
     atom   39 type  3   force =    -0.00032846   -0.00034289   -0.00092616
     atom   40 type  4   force =     0.00040440   -0.00029961   -0.00519425

     Total force =     0.007929     Total SCF correction =     0.002120
     SCF correction compared to forces is large: reduce conv_thr to get better values

[...]

     negative rho (up, down):  1.321E-02 0.000E+00

     negative rho (up, down):  1.321E-02 0.000E+00
 BEEFens 2000 ensemble energies
             -0.604856114658263E+02
             -0.360445130482859E+01
             -0.157987205496863E+02
              0.428094455127775E+02
             -0.220600780332466E+02
             -0.204940958187784E+02
             -0.350808303628863E+02
             -0.862061345650733E+02
             -0.464411746921975E+02
             -0.471871069522022E+02
             -0.368203203655540E+02
              0.225440690292944E+01
              0.405711786063560E+01
              0.765680346731637E+01
              0.264152728383581E+01
              0.473576213854913E+02
             -0.208333461249108E+02
             -0.230188228707891E+02
              0.192143725172746E+02
             -0.112080870134600E+03
              0.534686613051626E+02
             -0.289374745544242E+02
             -0.331899277959007E+01
             -0.113902445559351E+02
             -0.886247467611736E+01
             -0.463262446787297E+01
              0.880344169619061E+02
             -0.186196031991658E+02
             -0.898748289779508E+01
             -0.516725511086444E+02
              0.813855520708680E+02
             -0.187441765092659E+02
             -0.373713870762533E+02
              0.248897068556186E+02
             -0.283357324782173E+01
              0.162980579297409E+02
             -0.487349857094557E+01
              0.108312556965597E+02
              0.286992112748687E+02
             -0.103002829515334E+03
              0.556850295827850E+02
              0.142049329132042E+02
             -0.166371185042544E+01
             -0.360777184685967E+02
              0.122820365597504E+02
             -0.146139144874368E+02
              0.396772050238188E+02
              0.363906378523841E+02
             -0.307775370196255E+02
             -0.274100193034899E+02
             -0.327427712675766E+02
             -0.351052911043624E+02
              0.135508913455702E+02
             -0.489357661582607E+02
              0.115035195075378E+02
              0.621422801438131E+02
              0.632975468224179E+02
              0.355039876761294E+02
              0.153708789474468E+02
              0.269489740598775E+02
[...]
             -0.703857286267878E+02
             -0.918576557020970E+00
             -0.247748726754342E+01
             -0.878993564892585E+01
             -0.181513894658798E+01
             -0.650983289794926E+02
             -0.210640933186771E+02
              0.534387453390984E+01
              0.893909386380318E+01
              0.467265118365733E+02
             -0.396350269123469E+02
              0.656063263225511E+02
             -0.424137054889998E+02
              0.209446473567404E+02
              0.348893563802413E+02

 BEEF-vdW xc energy contributions
           1 :   -780.778335987990
           2 :    717.519198169706
           3 :   -607.893102418846
           4 :    478.690680934089
           5 :   -357.227499608951
           6 :    263.262136356938
           7 :   -204.488206314635
           8 :    176.478350247122
           9 :   -166.656660115804
          10 :    160.417135191122
          11 :   -146.897136491871
          12 :    122.232648111572
          13 :   -89.4434278243663
          14 :    55.5552488243120
          15 :   -27.6174103899236
          16 :    9.42380604075129
          17 :  -0.210673780596153
          18 :   -4.40347282123651
          19 :    9.93464099274297
          20 :   -20.3149127006988
          21 :    36.1912529694083
          22 :   -54.9155310876516
          23 :    72.0598111660466
          24 :   -83.6300138878561
          25 :    87.8903365855853
          26 :   -85.9942323293790
          27 :    81.2231546123046
          28 :   -77.2965556578982
          29 :    76.6065916557374
          30 :   -79.2106804171665
          31 :   -85.4993194255969
          32 :   -65.5639537771881

     Writing output data file ./pwscf.save/

     General routines

     Parallel routines

   This run was terminated on:  19:19:50  20Dec2022

   JOB DONE.