     Program PWSCF v.6.7MaX starts on 27Sep2022 at 21:58:34

     Reading input from h2co2h2-ensemble.in
Warning: card &CELL ignored
Warning: card / ignored

     Current dimensions of program PWSCF are:
     Max number of different atomic species (ntypx) = 10
     Max number of k-points (npk) =  40000
     Max angular momentum in pseudopotentials (lmaxx) =  3
     file Pt.pbe-n-kjpaw_psl.1.0.0.UPF: wavefunction(s)  6S 5D renormalized
     file O.pbe-nl-kjpaw_psl.1.0.0.UPF: wavefunction(s)  2S 2P renormalized
     file C.pbe-n-kjpaw_psl.1.0.0.UPF: wavefunction(s)  2S 2P renormalized
     file H.pbe-kjpaw_psl.1.0.0.UPF: wavefunction(s)  1S renormalized

     IMPORTANT: XC functional enforced from input :
     Exchange-correlation= BEEF-VDW
                           (   1   4  43  14   2   0   0)
     Any further DFT definition will be discarded
     Please, verify this is what you really want

     Subspace diagonalization in iterative solution of the eigenvalue problem:
     a serial algorithm will be used

     bravais-lattice index     =            0
     lattice parameter (alat)  =      16.0349  a.u.
     unit-cell volume          =   11828.8277 (a.u.)^3
     number of atoms/cell      =           43
     number of atomic types    =            4
     number of electrons       =       380.00
     number of Kohn-Sham states=          228
     kinetic-energy cutoff     =      60.0000  Ry
     charge density cutoff     =     240.0000  Ry
     scf convergence threshold =      1.0E-06
     mixing beta               =       0.7000
     number of iterations used =            8  local-TF  mixing
     Exchange-correlation= BEEF-VDW
                           (   1   4  43  14   2   0   0)

     celldm(1)=  16.034858  celldm(2)=   0.000000  celldm(3)=   0.000000
     celldm(4)=   0.000000  celldm(5)=   0.000000  celldm(6)=   0.000000

     crystal axes: (cart. coord. in units of alat)
               a(1) = (   1.000000   0.000000   0.000000 )
               a(2) = (   0.500000   0.866025   0.000000 )
               a(3) = (   0.000000   0.000000   3.312956 )

     reciprocal axes: (cart. coord. in units 2 pi/alat)
               b(1) = (  1.000000 -0.577350  0.000000 )
               b(2) = (  0.000000  1.154701  0.000000 )
               b(3) = (  0.000000  0.000000  0.301845 )

     PseudoPot. # 1 for Pt read from file:
     /users/bkreitz1/quantum-espresso/potentials/Pt.pbe-n-kjpaw_psl.1.0.0.UPF
     MD5 check sum: 04dc8a03c51ece93fc7b5889c2958091
     Pseudo is Projector augmented-wave + core cor, Zval = 10.0
     Generated using 'atomic' code by A. Dal Corso  v.6.7MaX
     Shape of augmentation charge: PSQ
     Using radial grid of 1277 points,  6 beta functions with:
                l(1) =   0
                l(2) =   0
                l(3) =   1
                l(4) =   1
                l(5) =   2
                l(6) =   2
     Q(r) pseudized with 0 coefficients

     PseudoPot. # 2 for O  read from file:
     /users/bkreitz1/quantum-espresso/potentials/O.pbe-nl-kjpaw_psl.1.0.0.UPF
     MD5 check sum: eef08af8b58d9ec80f8fdb78829eb7cf
     Pseudo is Projector augmented-wave + core cor, Zval =  6.0
     Generated using 'atomic' code by A. Dal Corso  v.6.7MaX
     Shape of augmentation charge: PSQ
     Using radial grid of 1095 points,  4 beta functions with:
                l(1) =   0
                l(2) =   0
                l(3) =   1
                l(4) =   1
     Q(r) pseudized with 0 coefficients

     PseudoPot. # 3 for C  read from file:
     /users/bkreitz1/quantum-espresso/potentials/C.pbe-n-kjpaw_psl.1.0.0.UPF
     MD5 check sum: a169b0ebad56f5ec0d79c4633f80bf22
     Pseudo is Projector augmented-wave + core cor, Zval =  4.0
     Generated using 'atomic' code by A. Dal Corso  v.6.7MaX
     Shape of augmentation charge: PSQ
     Using radial grid of 1073 points,  4 beta functions with:
                l(1) =   0
                l(2) =   0
                l(3) =   1
                l(4) =   1
     Q(r) pseudized with 0 coefficients

     PseudoPot. # 4 for H  read from file:
     /users/bkreitz1/quantum-espresso/potentials/H.pbe-kjpaw_psl.1.0.0.UPF
     MD5 check sum: ae98473e6dc62675f0d0baffdab24f65
     Pseudo is Projector augmented-wave, Zval =  1.0
     Generated using 'atomic' code by A. Dal Corso  v.6.7MaX
     Shape of augmentation charge: PSQ
     Using radial grid of  929 points,  2 beta functions with:
                l(1) =   0
                l(2) =   0
     Q(r) pseudized with 0 coefficients

     atomic species   valence    mass     pseudopotential
        Pt            10.00   195.08400     Pt( 1.00)
        O              6.00    15.99900     O ( 1.00)
        C              4.00    12.01100     C ( 1.00)
        H              1.00     1.00800     H ( 1.00)

     No symmetry found

   Cartesian axes

     site n.     atom                  positions (alat units)
         1           Pt  tau(   1) = (   0.0000000   0.0000000   1.0017346  )
         2           Pt  tau(   2) = (   0.3333333   0.0000000   1.0017346  )
         3           Pt  tau(   3) = (   0.6666667   0.0000000   1.0017346  )
         4           Pt  tau(   4) = (   0.1666667   0.2886751   1.0017346  )
         5           Pt  tau(   5) = (   0.5000000   0.2886751   1.0017346  )
         6           Pt  tau(   6) = (   0.8333333   0.2886751   1.0017346  )
         7           Pt  tau(   7) = (   0.3333333   0.5773503   1.0017346  )
         8           Pt  tau(   8) = (   0.6666667   0.5773503   1.0017346  )
         9           Pt  tau(   9) = (   1.0000000   0.5773503   1.0017346  )
        10           Pt  tau(  10) = (   0.1666667   0.0962250   1.2739001  )
        11           Pt  tau(  11) = (   0.5000000   0.0962250   1.2739001  )
        12           Pt  tau(  12) = (   0.8333333   0.0962250   1.2739001  )
        13           Pt  tau(  13) = (   0.3333333   0.3849002   1.2739001  )
        14           Pt  tau(  14) = (   0.6666667   0.3849002   1.2739001  )
        15           Pt  tau(  15) = (   1.0000000   0.3849002   1.2739001  )
        16           Pt  tau(  16) = (   0.5000000   0.6735753   1.2739001  )
        17           Pt  tau(  17) = (   0.8333333   0.6735753   1.2739001  )
        18           Pt  tau(  18) = (   1.1666667   0.6735753   1.2739001  )
        19           Pt  tau(  19) = (   0.0001993   0.1923801   1.5425880  )
        20           Pt  tau(  20) = (   0.3335163   0.1925096   1.5426305  )
        21           Pt  tau(  21) = (   0.6663937   0.1925433   1.5429434  )
        22           Pt  tau(  22) = (   0.1666020   0.4811427   1.5425184  )
        23           Pt  tau(  23) = (   0.5000537   0.4807670   1.5429393  )
        24           Pt  tau(  24) = (   0.8333494   0.4811337   1.5426889  )
        25           Pt  tau(  25) = (   0.3335132   0.7700941   1.5419508  )
        26           Pt  tau(  26) = (   0.6664009   0.7698147   1.5422169  )
        27           Pt  tau(  27) = (   1.0001561   0.7697979   1.5424600  )
        28           Pt  tau(  28) = (  -0.0000683  -0.0002887   1.8173729  )
        29           Pt  tau(  29) = (   0.3331065  -0.0013404   1.8160520  )
        30           Pt  tau(  30) = (   0.6669870  -0.0008581   1.8166139  )
        31           Pt  tau(  31) = (   0.1659617   0.2890488   1.8160946  )
        32           Pt  tau(  32) = (   0.5000673   0.2893230   1.8173087  )
        33           Pt  tau(  33) = (   0.8337557   0.2887960   1.8162630  )
        34           Pt  tau(  34) = (   0.3331362   0.5785607   1.8158617  )
        35           Pt  tau(  35) = (   0.6671254   0.5780500   1.8166761  )
        36           Pt  tau(  36) = (   0.9998049   0.5776461   1.8169981  )
        37           O   tau(  37) = (   0.4983629   0.2644576   2.1439723  )
        38           C   tau(  38) = (   0.3711693   0.3164595   2.2416358  )
        39           O   tau(  39) = (   0.2193701   0.2911698   2.1765726  )
        40           H   tau(  40) = (   0.3808314   0.2608457   2.3578413  )
        41           H   tau(  41) = (   0.3849848   0.4436865   2.2500157  )
        42           H   tau(  42) = (   0.1907242   0.1810696   2.1858275  )
        43           H   tau(  43) = (   0.5057635   0.1504659   2.1477401  )

     number of k points=    13  Marzari-Vanderbilt smearing, width (Ry)=  0.0200
                       cart. coord. in units 2pi/alat
        k(    1) = (   0.0000000   0.0000000   0.0000000), wk =   0.0800000
        k(    2) = (   0.0000000   0.2309401   0.0000000), wk =   0.1600000
        k(    3) = (   0.0000000   0.4618802   0.0000000), wk =   0.1600000
        k(    4) = (   0.2000000  -0.1154701   0.0000000), wk =   0.1600000
        k(    5) = (   0.2000000   0.1154701   0.0000000), wk =   0.1600000
        k(    6) = (   0.2000000   0.3464102   0.0000000), wk =   0.1600000
        k(    7) = (   0.2000000  -0.5773503   0.0000000), wk =   0.1600000
        k(    8) = (   0.2000000  -0.3464102   0.0000000), wk =   0.1600000
        k(    9) = (   0.4000000  -0.2309401   0.0000000), wk =   0.1600000
        k(   10) = (   0.4000000  -0.0000000   0.0000000), wk =   0.1600000
        k(   11) = (   0.4000000   0.2309401   0.0000000), wk =   0.1600000
        k(   12) = (   0.4000000  -0.6928203   0.0000000), wk =   0.1600000
        k(   13) = (   0.4000000  -0.4618802   0.0000000), wk =   0.1600000

     Check: negative core charge=   -0.000002

     Initial potential from superposition of free atoms

     starting charge  379.99381, renormalised to  380.00000

     negative rho (up, down):  1.151E-02 0.000E+00

     %%%%%%%%%%%%%%%%%%%%%%%%%%%%%%%%%%%%%%%%%%%%%%%%%%%%%%%%%%%%%%%%%%%%%%%%
     %                                                                      %
     % You are using vdW-DF, which was implemented by the Thonhauser group. %
     % Please cite the following two papers that made this development      %
     % possible and the two reviews that describe the various versions:     %
     %                                                                      %
     %   T. Thonhauser et al., PRL 115, 136402 (2015).                      %
     %   T. Thonhauser et al., PRB 76, 125112 (2007).                       %
     %   K. Berland et al., Rep. Prog. Phys. 78, 066501 (2015).             %
     %   D.C. Langreth et al., J. Phys.: Condens. Matter 21, 084203 (2009). %
     %                                                                      %
     %                                                                      %
     % If you are calculating the stress with vdW-DF, please also cite:     %
     %                                                                      %
     %   R. Sabatini et al., J. Phys.: Condens. Matter 24, 424209 (2012).   %
     %                                                                      %
     %%%%%%%%%%%%%%%%%%%%%%%%%%%%%%%%%%%%%%%%%%%%%%%%%%%%%%%%%%%%%%%%%%%%%%%%

     Starting wfcs are  340 randomized atomic wfcs
     Checking if some PAW data can be deallocated...

     Self-consistent Calculation

     iteration #  1     ecut=    60.00 Ry     beta= 0.70
     Davidson diagonalization with overlap
     ethr =  1.00E-02,  avg # of iterations =  2.8

     Threshold (ethr) on eigenvalues was too large:
     Diagonalizing with lowered threshold

     Davidson diagonalization with overlap
     ethr =  5.74E-04,  avg # of iterations =  3.9

[...]

     total energy              =  -27862.89464222 Ry
     estimated scf accuracy    <       2.36325246 Ry

[...]

     iteration #  4     ecut=    60.00 Ry     beta= 0.70
     Davidson diagonalization with overlap
     c_bands:  1 eigenvalues not converged
     ethr =  5.92E-05,  avg # of iterations = 13.5

[...]

     iteration # 12     ecut=    60.00 Ry     beta= 0.70
     Davidson diagonalization with overlap
     c_bands:  1 eigenvalues not converged
     ethr =  1.46E-07,  avg # of iterations =  4.6

[...]

     total energy              =  -27863.14309634 Ry
     estimated scf accuracy    <       0.00000164 Ry

     iteration # 22     ecut=    60.00 Ry     beta= 0.70
     Davidson diagonalization with overlap
     ethr =  4.31E-10,  avg # of iterations =  2.0

[...]

     End of self-consistent calculation

          k = 0.0000 0.0000 0.0000 ( 92939 PWs)   bands (ev):

   -20.4206 -18.9560 -10.7472  -7.0001  -6.9676  -6.6318  -5.6904  -4.9742
    -4.6131  -4.5779  -4.5776  -4.5761  -4.5753  -4.5727  -4.5712  -4.5635
    -4.0241  -4.0186  -4.0166  -4.0155  -4.0152  -4.0146  -3.5483  -3.5465
    -3.5458  -3.5447  -3.5412  -3.5405  -3.3515  -3.3318  -3.3277  -3.3271
    -3.3267  -3.3267  -3.1008  -3.0994  -3.0949  -3.0937  -3.0921  -3.0862
    -3.0837  -3.0828  -3.0788  -3.0768  -3.0706  -3.0590  -2.9435  -2.4857
    -2.4821  -2.4778  -2.4517  -2.4495  -2.3976  -2.3958  -2.3944  -2.3928
    -2.3860  -2.3678  -2.2557  -2.2522  -2.1564  -2.1458  -1.6579  -1.6509
    -1.6474  -1.6459  -1.6445  -1.6438  -1.5796  -1.5094  -1.4905  -1.4903
    -1.4594  -1.4590  -1.4499  -1.4474  -1.4287  -1.4271  -1.4267  -1.4257
    -1.4233  -1.4194  -1.3885  -1.3884  -1.2868  -1.2375  -1.2332  -1.2312
    -1.2273  -1.2264  -1.0970  -1.0820  -1.0786  -1.0757  -1.0749  -1.0732
    -1.0716  -0.9806  -0.9803  -0.8845  -0.8841  -0.8662  -0.8213  -0.8165
    -0.8147  -0.7793  -0.7722  -0.7684  -0.7668  -0.7364  -0.6136  -0.6100
    -0.6074  -0.6045  -0.5967  -0.5753  -0.4614  -0.1176  -0.1133  -0.1124
    -0.1076  -0.1071  -0.1057  -0.0482  -0.0418  -0.0393  -0.0373  -0.0352
    -0.0253   0.0373   0.0411   0.1929   0.2007   0.2041   0.2063   0.2186
     0.2401   0.3445   0.3465   0.3575   0.3579   0.3654   0.3659   0.6154
     0.6173   0.6210   0.6213   0.6236   0.6239   0.6996   0.7009   0.8761
     0.8788   0.8826   0.8844   0.8933   0.9026   1.0495   1.0504   1.0571
     1.0574   1.0582   1.0607   1.0881   1.0899   1.0930   1.0975   1.1201
     1.1485   1.2303   1.2408   1.2433   1.2468   1.2483   1.2496   1.2507
     1.2549   1.3410   1.3439   1.3558   1.3580   1.3593   1.3613   1.3680
     1.3689   1.4537   1.4543   1.4611   1.4636   1.4668   1.4681   1.5584
     1.5686   1.5693   1.5712   1.5767   1.5770   1.7116   1.7881   1.7885
     1.8909   1.8944   1.8984   1.8998   1.9001   1.9032   2.6784   2.7620
     2.7630   2.7761   2.7826   2.8331   2.9687   5.0369   5.0678   5.0892
     5.0945   5.1553   5.2259   5.3227   6.2800   6.6290   6.6523   6.6551
     6.7022   6.7092   6.7125   6.7157

[...]

          k = 0.4000-0.4619 0.0000 ( 92836 PWs)   bands (ev):

   -20.4206 -18.9560 -10.7471  -6.9694  -6.6331  -6.0305  -6.0283  -5.4219
    -4.9760  -4.7722  -4.7680  -4.2585  -4.2560  -4.1228  -4.0891  -3.9808
    -3.9786  -3.8726  -3.8704  -3.7502  -3.7477  -3.7440  -3.7074  -3.7059
    -3.6821  -3.6800  -3.5526  -3.5388  -3.5370  -3.4970  -3.4934  -3.3954
    -3.3078  -3.2824  -3.2249  -3.1289  -3.1226  -3.1099  -3.1061  -3.0918
    -3.0095  -2.9791  -2.9517  -2.8805  -2.8593  -2.7045  -2.6972  -2.6413
    -2.5507  -2.5361  -2.4897  -2.4831  -2.4462  -2.3742  -2.3296  -2.2798
    -2.2782  -2.2578  -2.2166  -2.2106  -2.1828  -2.0804  -2.0753  -2.0496
    -2.0467  -2.0402  -2.0380  -2.0337  -1.9645  -1.9615  -1.8345  -1.8106
    -1.7617  -1.7594  -1.6440  -1.6104  -1.6027  -1.6000  -1.5577  -1.5149
    -1.5128  -1.4409  -1.4072  -1.4029  -1.3931  -1.3792  -1.3414  -1.2868
    -1.2798  -1.2464  -1.2314  -1.1806  -1.1786  -1.1613  -1.0920  -1.0479
    -1.0034  -0.9975  -0.9589  -0.9570  -0.9201  -0.9102  -0.9014  -0.8938
    -0.8671  -0.8632  -0.8339  -0.8121  -0.7952  -0.7795  -0.7632  -0.7607
    -0.7540  -0.7365  -0.7249  -0.7058  -0.6482  -0.6445  -0.6272  -0.4274
    -0.4166  -0.3341  -0.3305  -0.2256  -0.2156  -0.2105  -0.1814  -0.1274
    -0.1223  -0.1183  -0.1020  -0.0826  -0.0093   0.0192   0.0206   0.0901
     0.1038   0.1324   0.1701   0.1926   0.2495   0.3682   0.4275   0.4296
     0.4518   0.4537   0.5418   0.5491   0.5510   0.5733   0.5869   0.6143
     0.6295   0.6370   0.7484   0.7514   0.7646   0.8162   0.8178   0.8399
     0.8466   0.8649   0.8856   1.0238   1.0744   1.1116   1.1816   1.1954
     1.2681   1.2696   1.3517   1.3983   1.4043   1.4119   1.5100   1.5183
     1.5813   1.6113   1.6227   1.6326   1.6370   1.6762   1.6883   1.7177
     1.7900   1.7916   1.8145   1.8377   1.8417   1.8496   1.8836   1.9106
     2.0476   2.0544   2.0556   2.0585   2.0630   2.1320   2.2166   2.2470
     2.3849   3.2054   3.2063   3.4079   3.4371   3.5194   3.6043   3.6099
     3.6188   4.0612   4.2166   4.2180   4.6703   4.6928   4.7087   4.8190
     4.8197   5.0355   5.0680   5.1159   5.1206   5.5613   5.6484   5.6581
     5.7778   6.0928   6.2954   6.3011

     the Fermi energy is     1.8238 ev

!    total energy              =  -27863.14309578 Ry

     total all-electron energy =  -1327025.366387 Ry
     estimated scf accuracy    <       0.00000045 Ry
     smearing contrib. (-TS)   =       0.00195138 Ry
     internal energy E=F+TS    =  -27863.14504716 Ry

     The total energy is F=E-TS. E is the sum of the following terms:
     one-electron contribution =  -29279.47123177 Ry
     hartree contribution      =   14946.11334757 Ry
     xc contribution           =    -913.34644325 Ry
     ewald contribution        =   12884.33100883 Ry
     one-center paw contrib.   =  -25500.77172854 Ry

     convergence has been achieved in  22 iterations

[...]

     Forces acting on atoms (cartesian axes, Ry/au):

     atom    1 type  1   force =    -0.00017749    0.00016106   -0.00462353
     atom    2 type  1   force =    -0.00013588    0.00014165   -0.00317326
     atom    3 type  1   force =     0.00034280    0.00022051   -0.00380603
     atom    4 type  1   force =    -0.00002393   -0.00021033   -0.00337281
     atom    5 type  1   force =     0.00002923   -0.00011450   -0.00359115
     atom    6 type  1   force =     0.00002848   -0.00035742   -0.00305946
     atom    7 type  1   force =     0.00008905    0.00014934   -0.00305444
     atom    8 type  1   force =    -0.00004906    0.00013112   -0.00308426
     atom    9 type  1   force =    -0.00001927    0.00002624   -0.00317646
     atom   10 type  1   force =     0.00007844    0.00014996    0.00344671
     atom   11 type  1   force =     0.00014831    0.00030357    0.00341535
     atom   12 type  1   force =     0.00001372    0.00047034    0.00473647
     atom   13 type  1   force =     0.00019876   -0.00012963    0.00275896
     atom   14 type  1   force =    -0.00015141   -0.00001320    0.00308043
     atom   15 type  1   force =    -0.00000388    0.00030479    0.00269583
     atom   16 type  1   force =     0.00019469   -0.00070101    0.00304221
     atom   17 type  1   force =     0.00016704   -0.00039853    0.00272627
     atom   18 type  1   force =    -0.00027238   -0.00033690    0.00264765
     atom   19 type  1   force =    -0.00001473    0.00012527    0.00013487
     atom   20 type  1   force =     0.00002401    0.00007493    0.00037605
     atom   21 type  1   force =     0.00000538    0.00008715    0.00025961
     atom   22 type  1   force =     0.00000577    0.00011481    0.00012194
     atom   23 type  1   force =     0.00000533    0.00007214    0.00020566
     atom   24 type  1   force =     0.00005376    0.00012378    0.00013422
     atom   25 type  1   force =    -0.00000153    0.00001642    0.00027460
     atom   26 type  1   force =     0.00003404   -0.00014150    0.00026126
     atom   27 type  1   force =     0.00000145   -0.00019258    0.00007586
     atom   28 type  1   force =     0.00006444    0.00024252    0.00023659
     atom   29 type  1   force =     0.00008734    0.00050493    0.00018102
     atom   30 type  1   force =    -0.00014039    0.00042523    0.00027364
     atom   31 type  1   force =     0.00025107    0.00005816    0.00016287
     atom   32 type  1   force =    -0.00010047   -0.00003866    0.00052137
     atom   33 type  1   force =    -0.00018355    0.00004782    0.00039039
     atom   34 type  1   force =     0.00006977   -0.00003721    0.00027381
     atom   35 type  1   force =    -0.00011907   -0.00011178    0.00037819
     atom   36 type  1   force =     0.00002881   -0.00003955    0.00026543
     atom   37 type  2   force =    -0.00133799   -0.00179309    0.00159862
     atom   38 type  3   force =    -0.00011672    0.00015866   -0.00193202
     atom   39 type  2   force =     0.00046988   -0.00103782    0.00022024
     atom   40 type  4   force =    -0.00026655    0.00034572   -0.00088870
     atom   41 type  4   force =    -0.00039255   -0.00049898    0.00018094
     atom   42 type  4   force =     0.00024251    0.00058424   -0.00038546
     atom   43 type  4   force =     0.00087278    0.00111234   -0.00092947

     Total force =     0.004434     Total SCF correction =     0.001529
     SCF correction compared to forces is large: reduce conv_thr to get better values

[...]

     negative rho (up, down):  1.310E-02 0.000E+00

     negative rho (up, down):  1.310E-02 0.000E+00
 BEEFens 2000 ensemble energies
             -0.611506245074293E+02
             -0.363121957782940E+01
             -0.159361657313389E+02
              0.432928417490267E+02
             -0.222906444552116E+02
             -0.206752351731594E+02
             -0.355984663993299E+02
             -0.872324789188192E+02
             -0.468437668082884E+02
             -0.476310326023275E+02
             -0.372037320789263E+02
              0.232177691720152E+01
              0.407081158402687E+01
              0.762420087844981E+01
              0.268747291904401E+01
              0.478575488089962E+02
             -0.210655216646196E+02
             -0.231480973203458E+02
              0.194150475875036E+02
             -0.113280357280710E+03
              0.540906211499635E+02
             -0.291485253718065E+02
             -0.338976357718011E+01
             -0.115104491101443E+02
             -0.884191463335083E+01
             -0.469840311928951E+01
              0.889820857900447E+02
             -0.188582183632934E+02
             -0.908805733400800E+01
             -0.522555463358862E+02
              0.821423805145103E+02
             -0.188127900046068E+02
             -0.378098611846808E+02
              0.251052530809242E+02
             -0.287462710514421E+01
              0.165640034644056E+02
             -0.487218618292400E+01
              0.108544073073031E+02
              0.290444635402502E+02
             -0.104094278982185E+03
              0.562843455111113E+02
              0.143337921245596E+02
             -0.178324982124730E+01
             -0.364103724039259E+02
              0.124025954683205E+02
             -0.148228310750293E+02
              0.402012440841227E+02
              0.367761996395537E+02
             -0.310054544440884E+02
             -0.277274678406643E+02
             -0.330406457389738E+02
             -0.354926447096708E+02
              0.137418621877867E+02
             -0.495009120996881E+02
              0.116849628748174E+02
              0.627937436359309E+02
              0.640891747101822E+02
              0.358662165971851E+02
              0.155680636341137E+02
              0.272869744003608E+02
[...]
             -0.711847663797575E+02
             -0.865164937807549E+00
             -0.245619635327333E+01
             -0.890557062925359E+01
             -0.179346563781786E+01
             -0.658087893324705E+02
             -0.211880706652389E+02
              0.546775356558268E+01
              0.906872514950760E+01
              0.472636369251599E+02
             -0.400751204011997E+02
              0.662064652637438E+02
             -0.428352312937125E+02
              0.212278341046886E+02
              0.353473638544725E+02

 BEEF-vdW xc energy contributions
           1 :   -788.573822836087
           2 :    724.031159981068
           3 :   -612.556513611760
           4 :    481.692515174998
           5 :   -359.081608874094
           6 :    264.432170897462
           7 :   -205.240692502363
           8 :    176.907498980243
           9 :   -166.779277015254
          10 :    160.264103594528
          11 :   -146.559239218203
          12 :    121.846907859418
          13 :   -89.1372817546448
          14 :    55.3912115318518
          15 :   -27.5740853293726
          16 :    9.42614803002607
          17 :  -0.188975488007713
          18 :   -4.47203388008234
          19 :    10.0275129330613
          20 :   -20.3953968032423
          21 :    36.2426983790406
          22 :   -54.9569655011267
          23 :    72.1320263862367
          24 :   -83.7649069463858
          25 :    88.0868694100253
          26 :   -86.2145581662023
          27 :    81.4132640125559
          28 :   -77.4179376287815
          29 :    76.6556645598133
          30 :   -79.2154005455704
          31 :   -86.4574455692214
          32 :   -66.1562574291335

     Writing output data file ./pwscf.save/

     General routines

     Parallel routines

   This run was terminated on:   3: 2:24  28Sep2022

   JOB DONE.