     Program PWSCF v.6.7MaX starts on 20May2022 at 15: 5:11

     Reading input from h2co2-ensemble.in
Warning: card &CELL ignored
Warning: card / ignored

     Current dimensions of program PWSCF are:
     Max number of different atomic species (ntypx) = 10
     Max number of k-points (npk) =  40000
     Max angular momentum in pseudopotentials (lmaxx) =  3
     file Pt.pbe-n-kjpaw_psl.1.0.0.UPF: wavefunction(s)  6S 5D renormalized
     file O.pbe-nl-kjpaw_psl.1.0.0.UPF: wavefunction(s)  2S 2P renormalized
     file C.pbe-n-kjpaw_psl.1.0.0.UPF: wavefunction(s)  2S 2P renormalized
     file H.pbe-kjpaw_psl.1.0.0.UPF: wavefunction(s)  1S renormalized

     IMPORTANT: XC functional enforced from input :
     Exchange-correlation= BEEF-VDW
                           (   1   4  43  14   2   0   0)
     Any further DFT definition will be discarded
     Please, verify this is what you really want

     Subspace diagonalization in iterative solution of the eigenvalue problem:
     a serial algorithm will be used

     bravais-lattice index     =            0
     lattice parameter (alat)  =      16.0349  a.u.
     unit-cell volume          =   11414.9051 (a.u.)^3
     number of atoms/cell      =           41
     number of atomic types    =            4
     number of electrons       =       378.00
     number of Kohn-Sham states=          227
     kinetic-energy cutoff     =      60.0000  Ry
     charge density cutoff     =     240.0000  Ry
     scf convergence threshold =      1.0E-06
     mixing beta               =       0.7000
     number of iterations used =            8  local-TF  mixing
     Exchange-correlation= BEEF-VDW
                           (   1   4  43  14   2   0   0)

     celldm(1)=  16.034858  celldm(2)=   0.000000  celldm(3)=   0.000000
     celldm(4)=   0.000000  celldm(5)=   0.000000  celldm(6)=   0.000000

     crystal axes: (cart. coord. in units of alat)
               a(1) = (   1.000000   0.000000   0.000000 )
               a(2) = (   0.500000   0.866025   0.000000 )
               a(3) = (   0.000000   0.000000   3.197027 )

     reciprocal axes: (cart. coord. in units 2 pi/alat)
               b(1) = (  1.000000 -0.577350  0.000000 )
               b(2) = (  0.000000  1.154701  0.000000 )
               b(3) = (  0.000000  0.000000  0.312791 )

     PseudoPot. # 1 for Pt read from file:
     /users/bkreitz1/quantum-espresso/potentials/Pt.pbe-n-kjpaw_psl.1.0.0.UPF
     MD5 check sum: 04dc8a03c51ece93fc7b5889c2958091
     Pseudo is Projector augmented-wave + core cor, Zval = 10.0
     Generated using 'atomic' code by A. Dal Corso  v.6.7MaX
     Shape of augmentation charge: PSQ
     Using radial grid of 1277 points,  6 beta functions with:
                l(1) =   0
                l(2) =   0
                l(3) =   1
                l(4) =   1
                l(5) =   2
                l(6) =   2
     Q(r) pseudized with 0 coefficients

     PseudoPot. # 2 for O  read from file:
     /users/bkreitz1/quantum-espresso/potentials/O.pbe-nl-kjpaw_psl.1.0.0.UPF
     MD5 check sum: eef08af8b58d9ec80f8fdb78829eb7cf
     Pseudo is Projector augmented-wave + core cor, Zval =  6.0
     Generated using 'atomic' code by A. Dal Corso  v.6.7MaX
     Shape of augmentation charge: PSQ
     Using radial grid of 1095 points,  4 beta functions with:
                l(1) =   0
                l(2) =   0
                l(3) =   1
                l(4) =   1
     Q(r) pseudized with 0 coefficients

     PseudoPot. # 3 for C  read from file:
     /users/bkreitz1/quantum-espresso/potentials/C.pbe-n-kjpaw_psl.1.0.0.UPF
     MD5 check sum: a169b0ebad56f5ec0d79c4633f80bf22
     Pseudo is Projector augmented-wave + core cor, Zval =  4.0
     Generated using 'atomic' code by A. Dal Corso  v.6.7MaX
     Shape of augmentation charge: PSQ
     Using radial grid of 1073 points,  4 beta functions with:
                l(1) =   0
                l(2) =   0
                l(3) =   1
                l(4) =   1
     Q(r) pseudized with 0 coefficients

     PseudoPot. # 4 for H  read from file:
     /users/bkreitz1/quantum-espresso/potentials/H.pbe-kjpaw_psl.1.0.0.UPF
     MD5 check sum: ae98473e6dc62675f0d0baffdab24f65
     Pseudo is Projector augmented-wave, Zval =  1.0
     Generated using 'atomic' code by A. Dal Corso  v.6.7MaX
     Shape of augmentation charge: PSQ
     Using radial grid of  929 points,  2 beta functions with:
                l(1) =   0
                l(2) =   0
     Q(r) pseudized with 0 coefficients

     atomic species   valence    mass     pseudopotential
        Pt            10.00   195.08400     Pt( 1.00)
        O              6.00    15.99900     O ( 1.00)
        C              4.00    12.01100     C ( 1.00)
        H              1.00     1.00800     H ( 1.00)

     No symmetry found

   Cartesian axes

     site n.     atom                  positions (alat units)
         1           Pt  tau(   1) = (   0.0000000   0.0000000   1.0017346  )
         2           Pt  tau(   2) = (   0.3333333   0.0000000   1.0017346  )
         3           Pt  tau(   3) = (   0.6666667   0.0000000   1.0017346  )
         4           Pt  tau(   4) = (   0.1666667   0.2886751   1.0017346  )
         5           Pt  tau(   5) = (   0.5000000   0.2886751   1.0017346  )
         6           Pt  tau(   6) = (   0.8333333   0.2886751   1.0017346  )
         7           Pt  tau(   7) = (   0.3333333   0.5773503   1.0017346  )
         8           Pt  tau(   8) = (   0.6666667   0.5773503   1.0017346  )
         9           Pt  tau(   9) = (   1.0000000   0.5773503   1.0017346  )
        10           Pt  tau(  10) = (   0.1666667   0.0962250   1.2739001  )
        11           Pt  tau(  11) = (   0.5000000   0.0962250   1.2739001  )
        12           Pt  tau(  12) = (   0.8333333   0.0962250   1.2739001  )
        13           Pt  tau(  13) = (   0.3333333   0.3849002   1.2739001  )
        14           Pt  tau(  14) = (   0.6666667   0.3849002   1.2739001  )
        15           Pt  tau(  15) = (   1.0000000   0.3849002   1.2739001  )
        16           Pt  tau(  16) = (   0.5000000   0.6735753   1.2739001  )
        17           Pt  tau(  17) = (   0.8333333   0.6735753   1.2739001  )
        18           Pt  tau(  18) = (   1.1666667   0.6735753   1.2739001  )
        19           Pt  tau(  19) = (  -0.0029071   0.1923246   1.5486868  )
        20           Pt  tau(  20) = (   0.3362452   0.1923283   1.5486875  )
        21           Pt  tau(  21) = (   0.6666624   0.1889817   1.5416811  )
        22           Pt  tau(  22) = (   0.1666706   0.4774854   1.5411081  )
        23           Pt  tau(  23) = (   0.5010619   0.4784277   1.5451095  )
        24           Pt  tau(  24) = (   0.8322651   0.4784284   1.5451132  )
        25           Pt  tau(  25) = (   0.3342638   0.7659679   1.5404019  )
        26           Pt  tau(  26) = (   0.6666661   0.7663689   1.5428897  )
        27           Pt  tau(  27) = (   0.9990677   0.7659730   1.5404036  )
        28           Pt  tau(  28) = (  -0.0003788  -0.0100420   1.8166394  )
        29           Pt  tau(  29) = (   0.3337139  -0.0100392   1.8166379  )
        30           Pt  tau(  30) = (   0.6666637  -0.0179153   1.8104032  )
        31           Pt  tau(  31) = (   0.1666698   0.2781113   1.8210021  )
        32           Pt  tau(  32) = (   0.4952450   0.2719672   1.8218240  )
        33           Pt  tau(  33) = (   0.8380856   0.2719674   1.8218251  )
        34           Pt  tau(  34) = (   0.3307367   0.5658626   1.8152916  )
        35           Pt  tau(  35) = (   0.6666643   0.5748246   1.8164528  )
        36           Pt  tau(  36) = (   1.0025996   0.5658673   1.8152905  )
        37           O   tau(  37) = (   0.6666682   0.2815879   2.0159945  )
        38           C   tau(  38) = (   0.6666642   0.4116586   2.1220387  )
        39           O   tau(  39) = (   0.6667265   0.5610704   2.0559677  )
        40           H   tau(  40) = (   0.5603031   0.3974324   2.1952265  )
        41           H   tau(  41) = (   0.7729742   0.3973925   2.1964711  )

     number of k points=    13  Marzari-Vanderbilt smearing, width (Ry)=  0.0200
                       cart. coord. in units 2pi/alat
        k(    1) = (   0.0000000   0.0000000   0.0000000), wk =   0.0800000
        k(    2) = (   0.0000000   0.2309401   0.0000000), wk =   0.1600000
        k(    3) = (   0.0000000   0.4618802   0.0000000), wk =   0.1600000
        k(    4) = (   0.2000000  -0.1154701   0.0000000), wk =   0.1600000
        k(    5) = (   0.2000000   0.1154701   0.0000000), wk =   0.1600000
        k(    6) = (   0.2000000   0.3464102   0.0000000), wk =   0.1600000
        k(    7) = (   0.2000000  -0.5773503   0.0000000), wk =   0.1600000
        k(    8) = (   0.2000000  -0.3464102   0.0000000), wk =   0.1600000
        k(    9) = (   0.4000000  -0.2309401   0.0000000), wk =   0.1600000
        k(   10) = (   0.4000000  -0.0000000   0.0000000), wk =   0.1600000
        k(   11) = (   0.4000000   0.2309401   0.0000000), wk =   0.1600000
        k(   12) = (   0.4000000  -0.6928203   0.0000000), wk =   0.1600000
        k(   13) = (   0.4000000  -0.4618802   0.0000000), wk =   0.1600000

     Check: negative core charge=   -0.000001

     Initial potential from superposition of free atoms

     starting charge  377.99383, renormalised to  378.00000

     negative rho (up, down):  1.208E-02 0.000E+00

     %%%%%%%%%%%%%%%%%%%%%%%%%%%%%%%%%%%%%%%%%%%%%%%%%%%%%%%%%%%%%%%%%%%%%%%%
     %                                                                      %
     % You are using vdW-DF, which was implemented by the Thonhauser group. %
     % Please cite the following two papers that made this development      %
     % possible and the two reviews that describe the various versions:     %
     %                                                                      %
     %   T. Thonhauser et al., PRL 115, 136402 (2015).                      %
     %   T. Thonhauser et al., PRB 76, 125112 (2007).                       %
     %   K. Berland et al., Rep. Prog. Phys. 78, 066501 (2015).             %
     %   D.C. Langreth et al., J. Phys.: Condens. Matter 21, 084203 (2009). %
     %                                                                      %
     %                                                                      %
     % If you are calculating the stress with vdW-DF, please also cite:     %
     %                                                                      %
     %   R. Sabatini et al., J. Phys.: Condens. Matter 24, 424209 (2012).   %
     %                                                                      %
     %%%%%%%%%%%%%%%%%%%%%%%%%%%%%%%%%%%%%%%%%%%%%%%%%%%%%%%%%%%%%%%%%%%%%%%%

     Starting wfcs are  338 randomized atomic wfcs
     Checking if some PAW data can be deallocated...

     Self-consistent Calculation

     iteration #  1     ecut=    60.00 Ry     beta= 0.70
     Davidson diagonalization with overlap
     ethr =  1.00E-02,  avg # of iterations =  2.2

     Threshold (ethr) on eigenvalues was too large:
     Diagonalizing with lowered threshold

     Davidson diagonalization with overlap
     ethr =  7.99E-04,  avg # of iterations =  2.7

[...]

     total energy              =  -27860.23932180 Ry
     estimated scf accuracy    <       3.17873416 Ry

[...]

     iteration #  6     ecut=    60.00 Ry     beta= 0.70
     Davidson diagonalization with overlap
     c_bands:  1 eigenvalues not converged
     c_bands:  1 eigenvalues not converged
     ethr =  1.20E-05,  avg # of iterations = 10.3

[...]

     iteration #  8     ecut=    60.00 Ry     beta= 0.70
     Davidson diagonalization with overlap
     c_bands:  2 eigenvalues not converged
     c_bands:  1 eigenvalues not converged
     ethr =  2.90E-06,  avg # of iterations = 11.9

[...]

     total energy              =  -27860.58651100 Ry
     estimated scf accuracy    <       0.00000151 Ry

     iteration # 19     ecut=    60.00 Ry     beta= 0.70
     Davidson diagonalization with overlap
     ethr =  4.01E-10,  avg # of iterations =  4.9

[...]

     End of self-consistent calculation

          k = 0.0000 0.0000 0.0000 ( 89647 PWs)   bands (ev):

   -19.2507 -17.3430  -9.2854  -7.0354  -5.7834  -5.5891  -5.3706  -4.6939
    -4.6836  -4.6392  -4.6265  -4.6239  -4.6133  -4.6131  -4.5870  -4.5394
    -4.0916  -4.0884  -4.0867  -4.0669  -4.0525  -4.0384  -3.6394  -3.6309
    -3.6226  -3.6062  -3.5926  -3.5698  -3.4311  -3.4012  -3.3991  -3.3809
    -3.3781  -3.3174  -3.2074  -3.1998  -3.1989  -3.1851  -3.1710  -3.1642
    -3.1491  -3.1374  -3.1328  -3.1065  -3.0919  -3.0755  -2.6830  -2.6266
    -2.6111  -2.5431  -2.5402  -2.5285  -2.5076  -2.5035  -2.4691  -2.4352
    -2.3680  -2.3165  -2.2632  -2.2497  -2.0953  -2.0322  -1.8158  -1.7869
    -1.7347  -1.7219  -1.6791  -1.6486  -1.6484  -1.5756  -1.5617  -1.5606
    -1.5371  -1.5299  -1.5229  -1.5100  -1.5010  -1.4953  -1.4632  -1.4571
    -1.4420  -1.4286  -1.4271  -1.4102  -1.3400  -1.3375  -1.3180  -1.2756
    -1.2349  -1.2227  -1.2001  -1.1498  -1.1275  -1.1240  -1.0847  -1.0737
    -1.0698  -1.0497  -1.0284  -0.9925  -0.9617  -0.9614  -0.9289  -0.8652
    -0.8522  -0.8437  -0.8159  -0.8098  -0.7467  -0.7016  -0.6844  -0.6605
    -0.6447  -0.5822  -0.4896  -0.4113  -0.3898  -0.2068  -0.1924  -0.1843
    -0.1825  -0.1686  -0.1576  -0.1086  -0.1080  -0.0668  -0.0253  -0.0207
     0.0199   0.0467   0.0542   0.1045   0.1098   0.1659   0.2003   0.2599
     0.2648   0.2980   0.3224   0.3298   0.3528   0.4814   0.5129   0.5608
     0.5699   0.5780   0.5811   0.6059   0.6686   0.7032   0.7734   0.8027
     0.8341   0.8490   0.8500   0.8626   0.8824   0.9026   0.9672   0.9675
     1.0108   1.0147   1.0166   1.0294   1.0485   1.0513   1.0530   1.0932
     1.1097   1.1384   1.1403   1.1493   1.1603   1.2230   1.2413   1.2436
     1.2554   1.2584   1.3033   1.3109   1.3205   1.3326   1.3572   1.3892
     1.3911   1.3935   1.4167   1.4195   1.4306   1.4331   1.4427   1.4882
     1.5073   1.5327   1.5452   1.6394   1.6552   1.7170   1.7817   1.8091
     1.8349   1.8362   1.8631   1.8723   1.9231   2.0785   2.6888   2.7357
     2.7498   2.7764   3.0309   3.1362   3.9944   5.0313   5.0756   5.1109
     5.2681   5.3449   5.8175   6.2921   6.6021   6.6087   6.6470   6.6715
     6.6723   6.6800   6.7257

[...]

          k = 0.4000-0.4619 0.0000 ( 89588 PWs)   bands (ev):

   -19.2507 -17.3430  -9.2817  -6.0925  -6.0731  -5.6397  -5.4357  -5.3492
    -4.8455  -4.8137  -4.6447  -4.3221  -4.2969  -4.1655  -4.1359  -4.0297
    -4.0207  -3.9205  -3.9033  -3.8352  -3.8084  -3.7859  -3.7564  -3.7434
    -3.7386  -3.7313  -3.6112  -3.5977  -3.5759  -3.5603  -3.5313  -3.4831
    -3.3979  -3.3498  -3.2898  -3.2311  -3.2076  -3.1820  -3.1534  -3.1366
    -3.0985  -3.0469  -2.9672  -2.9423  -2.8066  -2.7492  -2.7276  -2.6975
    -2.6308  -2.5939  -2.5572  -2.5115  -2.4276  -2.4085  -2.3836  -2.3544
    -2.3460  -2.2849  -2.2569  -2.2342  -2.1976  -2.1650  -2.1423  -2.1136
    -2.0996  -2.0867  -2.0716  -2.0204  -2.0124  -1.9780  -1.9090  -1.8611
    -1.8413  -1.7807  -1.7437  -1.7188  -1.6779  -1.6477  -1.6371  -1.6233
    -1.5696  -1.5580  -1.5491  -1.4806  -1.4466  -1.4011  -1.3846  -1.3595
    -1.3265  -1.2974  -1.2746  -1.2519  -1.2308  -1.1962  -1.1681  -1.0867
    -1.0494  -1.0424  -1.0258  -1.0007  -0.9851  -0.9564  -0.9404  -0.9198
    -0.9032  -0.8818  -0.8743  -0.8479  -0.8246  -0.8177  -0.7866  -0.7747
    -0.7628  -0.7434  -0.7223  -0.6953  -0.6470  -0.5333  -0.4656  -0.4230
    -0.4054  -0.3719  -0.3295  -0.3093  -0.2635  -0.2330  -0.2184  -0.1845
    -0.1538  -0.1475  -0.1127  -0.1007  -0.0544  -0.0252   0.0191   0.0887
     0.0990   0.1140   0.1741   0.2053   0.2742   0.2952   0.3557   0.3902
     0.4144   0.4377   0.4681   0.4992   0.5311   0.5389   0.5725   0.5983
     0.6221   0.6546   0.6892   0.7236   0.7575   0.7658   0.7988   0.8183
     0.8466   0.9318   0.9515   1.0418   1.0833   1.1121   1.1777   1.2101
     1.2241   1.2958   1.3368   1.3470   1.3789   1.4432   1.4919   1.5298
     1.5488   1.5678   1.5812   1.6001   1.6281   1.6647   1.6853   1.7142
     1.7273   1.7478   1.7702   1.7871   1.8270   1.8549   1.9321   1.9531
     1.9811   1.9930   2.0380   2.0510   2.1253   2.1630   2.2018   2.3494
     2.6050   3.1435   3.1517   3.4093   3.4759   3.5252   3.5654   3.6652
     3.8312   4.1442   4.1815   4.2252   4.6319   4.7391   4.7603   4.8103
     4.8528   4.9954   5.0860   5.2112   5.4616   5.5606   5.6705   5.9502
     6.2235   6.2947   6.3610

     the Fermi energy is     1.7781 ev

!    total energy              =  -27860.58651059 Ry

     total all-electron energy =  -1327022.809810 Ry
     estimated scf accuracy    <       0.00000073 Ry
     smearing contrib. (-TS)   =      -0.00056716 Ry
     internal energy E=F+TS    =  -27860.58594343 Ry

     The total energy is F=E-TS. E is the sum of the following terms:
     one-electron contribution =  -27812.75287213 Ry
     hartree contribution      =   14211.76031765 Ry
     xc contribution           =    -911.79496668 Ry
     ewald contribution        =   12153.00867458 Ry
     one-center paw contrib.   =  -25500.80709685 Ry

     convergence has been achieved in  19 iterations

[...]

     Forces acting on atoms (cartesian axes, Ry/au):

     atom    1 type  1   force =    -0.00230929    0.00005399   -0.00593782
     atom    2 type  1   force =     0.00235749    0.00002589   -0.00594023
     atom    3 type  1   force =     0.00001669   -0.00036908   -0.00464781
     atom    4 type  1   force =     0.00000210    0.00134145   -0.00613992
     atom    5 type  1   force =    -0.00159692   -0.00012090   -0.00293768
     atom    6 type  1   force =     0.00166376   -0.00010323   -0.00292796
     atom    7 type  1   force =    -0.00038450    0.00094540   -0.00389622
     atom    8 type  1   force =     0.00004634    0.00201238   -0.00344312
     atom    9 type  1   force =     0.00040181    0.00093929   -0.00388150
     atom   10 type  1   force =     0.00002671    0.00282328    0.01562008
     atom   11 type  1   force =    -0.00426992    0.00114537    0.00211425
     atom   12 type  1   force =     0.00432259    0.00117846    0.00212858
     atom   13 type  1   force =     0.00069803   -0.00390122    0.00658623
     atom   14 type  1   force =     0.00006200    0.00056354    0.00648691
     atom   15 type  1   force =    -0.00068529   -0.00388138    0.00662338
     atom   16 type  1   force =     0.00255379   -0.00016649    0.00217284
     atom   17 type  1   force =    -0.00247677   -0.00019567    0.00217445
     atom   18 type  1   force =    -0.00001516   -0.00042823   -0.00114189
     atom   19 type  1   force =    -0.00007407   -0.00003119   -0.00019240
     atom   20 type  1   force =     0.00007207   -0.00005116   -0.00020022
     atom   21 type  1   force =     0.00008131    0.00002470    0.00016152
     atom   22 type  1   force =    -0.00003448    0.00001307    0.00007476
     atom   23 type  1   force =     0.00016627    0.00013375   -0.00006415
     atom   24 type  1   force =    -0.00007698    0.00010708   -0.00008757
     atom   25 type  1   force =     0.00013313    0.00001236    0.00012348
     atom   26 type  1   force =     0.00001882   -0.00007728   -0.00001891
     atom   27 type  1   force =    -0.00009085   -0.00005811    0.00009393
     atom   28 type  1   force =     0.00008683   -0.00012148   -0.00027197
     atom   29 type  1   force =    -0.00007058   -0.00014690   -0.00025130
     atom   30 type  1   force =     0.00004426    0.00002682   -0.00025318
     atom   31 type  1   force =    -0.00000606   -0.00009227    0.00002439
     atom   32 type  1   force =    -0.00012753    0.00001028   -0.00011353
     atom   33 type  1   force =     0.00013960   -0.00002388   -0.00006408
     atom   34 type  1   force =     0.00005142    0.00007698   -0.00031149
     atom   35 type  1   force =     0.00001758    0.00008201   -0.00053746
     atom   36 type  1   force =    -0.00001364    0.00003827   -0.00032315
     atom   37 type  2   force =     0.00076665    0.00066941    0.00137907
     atom   38 type  3   force =     0.00278172   -0.00215077    0.00224071
     atom   39 type  2   force =     0.00052991   -0.00098388    0.00069958
     atom   40 type  4   force =    -0.00037387    0.00007947   -0.00032088
     atom   41 type  4   force =    -0.00443496    0.00059986   -0.00479971

     Total force =     0.008153     Total SCF correction =     0.000886
     SCF correction compared to forces is large: reduce conv_thr to get better values

[...]

     negative rho (up, down):  1.356E-02 0.000E+00

     negative rho (up, down):  1.356E-02 0.000E+00
 BEEFens 2000 ensemble energies
             -0.610543847440578E+02
             -0.363215692624948E+01
             -0.159262223144904E+02
              0.431899999662180E+02
             -0.222368198025316E+02
             -0.206447708367565E+02
             -0.354901297989015E+02
             -0.870569448771274E+02
             -0.467837815872856E+02
             -0.475339342525735E+02
             -0.371393327327075E+02
              0.230024460344537E+01
              0.409932021745692E+01
              0.762089643387097E+01
              0.268096941055487E+01
              0.477766701728887E+02
             -0.210159141884994E+02
             -0.231436932430260E+02
              0.194105367543764E+02
             -0.113068946671553E+03
              0.539707298855641E+02
             -0.291108124342244E+02
             -0.336796939846555E+01
             -0.114690917817399E+02
             -0.886336762029305E+01
             -0.470381106256258E+01
              0.888174910080822E+02
             -0.188053242709252E+02
             -0.908165146286944E+01
             -0.521771152443084E+02
              0.820246356038685E+02
             -0.188153235880299E+02
             -0.377404382008569E+02
              0.250759363058291E+02
             -0.285283795753088E+01
              0.165256240122023E+02
             -0.486561511814341E+01
              0.108453671713838E+02
              0.289958699271849E+02
             -0.103913785010454E+03
              0.561644647499508E+02
              0.143199838187573E+02
             -0.174967959758857E+01
             -0.363719797409245E+02
              0.123844646148587E+02
             -0.147517803516839E+02
              0.401111103504892E+02
              0.367077892092489E+02
             -0.309640781415260E+02
             -0.276940656480987E+02
             -0.330055347215452E+02
             -0.354281067123881E+02
              0.137113211956235E+02
             -0.494113077566640E+02
              0.116406971052011E+02
              0.626926015905688E+02
              0.639468255232198E+02
              0.357803270225292E+02
              0.155341162276181E+02
              0.272239853687927E+02
[...]
             -0.710448542232784E+02
             -0.905637782654821E+00
             -0.246250952891916E+01
             -0.888809878106247E+01
             -0.177732364581141E+01
             -0.656790879298327E+02
             -0.211751508791831E+02
              0.544399573020495E+01
              0.903929184558160E+01
              0.471647065528941E+02
             -0.400122115684194E+02
              0.661065249794827E+02
             -0.427627869739844E+02
              0.211718451391249E+02
              0.352717495989292E+02

 BEEF-vdW xc energy contributions
           1 :   -787.380006058500
           2 :    723.290511941910
           3 :   -612.320293148825
           4 :    481.663548511789
           5 :   -358.933520927393
           6 :    264.029075310486
           7 :   -204.661396064889
           8 :    176.347478753087
           9 :   -166.422059572984
          10 :    160.188347686545
          11 :   -146.713831796064
          12 :    122.094003308358
          13 :   -89.3345529326664
          14 :    55.4611163044317
          15 :   -27.5242661504209
          16 :    9.31827441307757
          17 :  -8.545144356185119E-002
          18 :   -4.54385061083713
          19 :    10.0763795939758
          20 :   -20.4428229170760
          21 :    36.2960841558138
          22 :   -54.9973681312156
          23 :    72.1276823855419
          24 :   -83.6958945485926
          25 :    87.9606087137895
          26 :   -86.0634814185611
          27 :    81.2750109311485
          28 :   -77.3098209162655
          29 :    76.5630505082895
          30 :   -79.1051028694153
          31 :   -86.2698543686485
          32 :   -66.0838566083228

     Writing output data file ./pwscf.save/

     General routines

     Parallel routines

   This run was terminated on:  19:30:22  20May2022

   JOB DONE.