     Program PWSCF v.6.7MaX starts on 26Sep2022 at 14:12: 8

     Reading input from h2coh-ensemble.in
Warning: card &CELL ignored
Warning: card / ignored

     Current dimensions of program PWSCF are:
     Max number of different atomic species (ntypx) = 10
     Max number of k-points (npk) =  40000
     Max angular momentum in pseudopotentials (lmaxx) =  3
     file Pt.pbe-n-kjpaw_psl.1.0.0.UPF: wavefunction(s)  6S 5D renormalized
     file C.pbe-n-kjpaw_psl.1.0.0.UPF: wavefunction(s)  2S 2P renormalized
     file H.pbe-kjpaw_psl.1.0.0.UPF: wavefunction(s)  1S renormalized
     file O.pbe-nl-kjpaw_psl.1.0.0.UPF: wavefunction(s)  2S 2P renormalized

     IMPORTANT: XC functional enforced from input :
     Exchange-correlation= BEEF-VDW
                           (   1   4  43  14   2   0   0)
     Any further DFT definition will be discarded
     Please, verify this is what you really want

     Subspace diagonalization in iterative solution of the eigenvalue problem:
     a serial algorithm will be used

     bravais-lattice index     =            0
     lattice parameter (alat)  =      16.0349  a.u.
     unit-cell volume          =   11289.5664 (a.u.)^3
     number of atoms/cell      =           41
     number of atomic types    =            4
     number of electrons       =       373.00
     number of Kohn-Sham states=          224
     kinetic-energy cutoff     =      60.0000  Ry
     charge density cutoff     =     240.0000  Ry
     scf convergence threshold =      1.0E-06
     mixing beta               =       0.7000
     number of iterations used =            8  local-TF  mixing
     Exchange-correlation= BEEF-VDW
                           (   1   4  43  14   2   0   0)

     celldm(1)=  16.034858  celldm(2)=   0.000000  celldm(3)=   0.000000
     celldm(4)=   0.000000  celldm(5)=   0.000000  celldm(6)=   0.000000

     crystal axes: (cart. coord. in units of alat)
               a(1) = (   1.000000   0.000000   0.000000 )
               a(2) = (   0.500000   0.866025   0.000000 )
               a(3) = (   0.000000   0.000000   3.161923 )

     reciprocal axes: (cart. coord. in units 2 pi/alat)
               b(1) = (  1.000000 -0.577350  0.000000 )
               b(2) = (  0.000000  1.154701  0.000000 )
               b(3) = (  0.000000  0.000000  0.316263 )

     PseudoPot. # 1 for Pt read from file:
     /users/bkreitz1/quantum-espresso/potentials/Pt.pbe-n-kjpaw_psl.1.0.0.UPF
     MD5 check sum: 04dc8a03c51ece93fc7b5889c2958091
     Pseudo is Projector augmented-wave + core cor, Zval = 10.0
     Generated using 'atomic' code by A. Dal Corso  v.6.7MaX
     Shape of augmentation charge: PSQ
     Using radial grid of 1277 points,  6 beta functions with:
                l(1) =   0
                l(2) =   0
                l(3) =   1
                l(4) =   1
                l(5) =   2
                l(6) =   2
     Q(r) pseudized with 0 coefficients

     PseudoPot. # 2 for C  read from file:
     /users/bkreitz1/quantum-espresso/potentials/C.pbe-n-kjpaw_psl.1.0.0.UPF
     MD5 check sum: a169b0ebad56f5ec0d79c4633f80bf22
     Pseudo is Projector augmented-wave + core cor, Zval =  4.0
     Generated using 'atomic' code by A. Dal Corso  v.6.7MaX
     Shape of augmentation charge: PSQ
     Using radial grid of 1073 points,  4 beta functions with:
                l(1) =   0
                l(2) =   0
                l(3) =   1
                l(4) =   1
     Q(r) pseudized with 0 coefficients

     PseudoPot. # 3 for H  read from file:
     /users/bkreitz1/quantum-espresso/potentials/H.pbe-kjpaw_psl.1.0.0.UPF
     MD5 check sum: ae98473e6dc62675f0d0baffdab24f65
     Pseudo is Projector augmented-wave, Zval =  1.0
     Generated using 'atomic' code by A. Dal Corso  v.6.7MaX
     Shape of augmentation charge: PSQ
     Using radial grid of  929 points,  2 beta functions with:
                l(1) =   0
                l(2) =   0
     Q(r) pseudized with 0 coefficients

     PseudoPot. # 4 for O  read from file:
     /users/bkreitz1/quantum-espresso/potentials/O.pbe-nl-kjpaw_psl.1.0.0.UPF
     MD5 check sum: eef08af8b58d9ec80f8fdb78829eb7cf
     Pseudo is Projector augmented-wave + core cor, Zval =  6.0
     Generated using 'atomic' code by A. Dal Corso  v.6.7MaX
     Shape of augmentation charge: PSQ
     Using radial grid of 1095 points,  4 beta functions with:
                l(1) =   0
                l(2) =   0
                l(3) =   1
                l(4) =   1
     Q(r) pseudized with 0 coefficients

     atomic species   valence    mass     pseudopotential
        Pt            10.00   195.08400     Pt( 1.00)
        C              4.00    12.01100     C ( 1.00)
        H              1.00     1.00800     H ( 1.00)
        O              6.00    15.99900     O ( 1.00)

     No symmetry found

   Cartesian axes

     site n.     atom                  positions (alat units)
         1           Pt  tau(   1) = (   0.0000000   0.0000000   1.0017346  )
         2           Pt  tau(   2) = (   0.3333333   0.0000000   1.0017346  )
         3           Pt  tau(   3) = (   0.6666667   0.0000000   1.0017346  )
         4           Pt  tau(   4) = (   0.1666667   0.2886751   1.0017346  )
         5           Pt  tau(   5) = (   0.5000000   0.2886751   1.0017346  )
         6           Pt  tau(   6) = (   0.8333333   0.2886751   1.0017346  )
         7           Pt  tau(   7) = (   0.3333333   0.5773503   1.0017346  )
         8           Pt  tau(   8) = (   0.6666667   0.5773503   1.0017346  )
         9           Pt  tau(   9) = (   1.0000000   0.5773503   1.0017346  )
        10           Pt  tau(  10) = (   0.1666667   0.0962250   1.2739001  )
        11           Pt  tau(  11) = (   0.5000000   0.0962250   1.2739001  )
        12           Pt  tau(  12) = (   0.8333333   0.0962250   1.2739001  )
        13           Pt  tau(  13) = (   0.3333333   0.3849002   1.2739001  )
        14           Pt  tau(  14) = (   0.6666667   0.3849002   1.2739001  )
        15           Pt  tau(  15) = (   1.0000000   0.3849002   1.2739001  )
        16           Pt  tau(  16) = (   0.5000000   0.6735753   1.2739001  )
        17           Pt  tau(  17) = (   0.8333333   0.6735753   1.2739001  )
        18           Pt  tau(  18) = (   1.1666667   0.6735753   1.2739001  )
        19           Pt  tau(  19) = (   0.0000758   0.1925953   1.5416099  )
        20           Pt  tau(  20) = (   0.3349796   0.1934270   1.5462253  )
        21           Pt  tau(  21) = (   0.6650688   0.1933644   1.5462586  )
        22           Pt  tau(  22) = (   0.1667815   0.4808899   1.5422765  )
        23           Pt  tau(  23) = (   0.4999422   0.4785157   1.5465386  )
        24           Pt  tau(  24) = (   0.8330205   0.4809966   1.5425050  )
        25           Pt  tau(  25) = (   0.3333167   0.7697931   1.5412961  )
        26           Pt  tau(  26) = (   0.6666056   0.7695702   1.5414265  )
        27           Pt  tau(  27) = (   1.0000000   0.7699727   1.5424011  )
        28           Pt  tau(  28) = (  -0.0000903  -0.0000577   1.8154738  )
        29           Pt  tau(  29) = (   0.3329694  -0.0002545   1.8156221  )
        30           Pt  tau(  30) = (   0.6670436  -0.0003278   1.8159765  )
        31           Pt  tau(  31) = (   0.1660453   0.2887376   1.8163846  )
        32           Pt  tau(  32) = (   0.5005213   0.2882839   1.8423663  )
        33           Pt  tau(  33) = (   0.8341045   0.2885078   1.8162001  )
        34           Pt  tau(  34) = (   0.3323616   0.5781238   1.8154387  )
        35           Pt  tau(  35) = (   0.6668089   0.5778321   1.8157824  )
        36           Pt  tau(  36) = (   0.9999174   0.5774032   1.8162162  )
        37           C   tau(  37) = (   0.4998420   0.2809281   2.0902318  )
        38           H   tau(  38) = (   0.3928202   0.2150431   2.1181396  )
        39           H   tau(  39) = (   0.6070837   0.2191373   2.1235033  )
        40           H   tau(  40) = (   0.4029192   0.4808658   2.1436706  )
        41           O   tau(  41) = (   0.5043699   0.4298794   2.1592926  )

     number of k points=    13  Marzari-Vanderbilt smearing, width (Ry)=  0.0200
                       cart. coord. in units 2pi/alat
        k(    1) = (   0.0000000   0.0000000   0.0000000), wk =   0.0800000
        k(    2) = (   0.0000000   0.2309401   0.0000000), wk =   0.1600000
        k(    3) = (   0.0000000   0.4618802   0.0000000), wk =   0.1600000
        k(    4) = (   0.2000000  -0.1154701   0.0000000), wk =   0.1600000
        k(    5) = (   0.2000000   0.1154701   0.0000000), wk =   0.1600000
        k(    6) = (   0.2000000   0.3464102   0.0000000), wk =   0.1600000
        k(    7) = (   0.2000000  -0.5773503   0.0000000), wk =   0.1600000
        k(    8) = (   0.2000000  -0.3464102   0.0000000), wk =   0.1600000
        k(    9) = (   0.4000000  -0.2309401   0.0000000), wk =   0.1600000
        k(   10) = (   0.4000000  -0.0000000   0.0000000), wk =   0.1600000
        k(   11) = (   0.4000000   0.2309401   0.0000000), wk =   0.1600000
        k(   12) = (   0.4000000  -0.6928203   0.0000000), wk =   0.1600000
        k(   13) = (   0.4000000  -0.4618802   0.0000000), wk =   0.1600000

     Check: negative core charge=   -0.000001

     Initial potential from superposition of free atoms

     starting charge  372.99382, renormalised to  373.00000

     negative rho (up, down):  1.175E-02 0.000E+00

     %%%%%%%%%%%%%%%%%%%%%%%%%%%%%%%%%%%%%%%%%%%%%%%%%%%%%%%%%%%%%%%%%%%%%%%%
     %                                                                      %
     % You are using vdW-DF, which was implemented by the Thonhauser group. %
     % Please cite the following two papers that made this development      %
     % possible and the two reviews that describe the various versions:     %
     %                                                                      %
     %   T. Thonhauser et al., PRL 115, 136402 (2015).                      %
     %   T. Thonhauser et al., PRB 76, 125112 (2007).                       %
     %   K. Berland et al., Rep. Prog. Phys. 78, 066501 (2015).             %
     %   D.C. Langreth et al., J. Phys.: Condens. Matter 21, 084203 (2009). %
     %                                                                      %
     %                                                                      %
     % If you are calculating the stress with vdW-DF, please also cite:     %
     %                                                                      %
     %   R. Sabatini et al., J. Phys.: Condens. Matter 24, 424209 (2012).   %
     %                                                                      %
     %%%%%%%%%%%%%%%%%%%%%%%%%%%%%%%%%%%%%%%%%%%%%%%%%%%%%%%%%%%%%%%%%%%%%%%%

     Starting wfcs are  335 randomized atomic wfcs
     Checking if some PAW data can be deallocated...

     Self-consistent Calculation

     iteration #  1     ecut=    60.00 Ry     beta= 0.70
     Davidson diagonalization with overlap
     ethr =  1.00E-02,  avg # of iterations =  2.5

     Threshold (ethr) on eigenvalues was too large:
     Diagonalizing with lowered threshold

     Davidson diagonalization with overlap
     ethr =  6.21E-04,  avg # of iterations =  3.7

[...]

     total energy              =  -27819.16215483 Ry
     estimated scf accuracy    <       2.53119849 Ry

[...]

     iteration #  4     ecut=    60.00 Ry     beta= 0.70
     Davidson diagonalization with overlap
     c_bands:  1 eigenvalues not converged
     c_bands:  1 eigenvalues not converged
     c_bands:  1 eigenvalues not converged
     ethr =  7.29E-05,  avg # of iterations = 11.8

[...]

     iteration #  7     ecut=    60.00 Ry     beta= 0.70
     Davidson diagonalization with overlap
     c_bands:  1 eigenvalues not converged
     ethr =  1.58E-06,  avg # of iterations =  9.8

[...]

     total energy              =  -27819.43366334 Ry
     estimated scf accuracy    <       0.00000161 Ry

     iteration # 18     ecut=    60.00 Ry     beta= 0.70
     Davidson diagonalization with overlap
     ethr =  4.32E-10,  avg # of iterations =  4.2

[...]

     End of self-consistent calculation

          k = 0.0000 0.0000 0.0000 ( 88721 PWs)   bands (ev):

   -19.8226 -10.3997  -6.9156  -6.4902  -5.6111  -4.6059  -4.5255  -4.5034
    -4.5008  -4.5000  -4.4853  -4.4782  -4.4640  -4.4562  -4.0046  -3.9410
    -3.9398  -3.9375  -3.9230  -3.9219  -3.7264  -3.4750  -3.4728  -3.4643
    -3.4566  -3.4529  -3.4066  -3.2540  -3.2496  -3.2481  -3.2433  -3.2409
    -3.1504  -3.0231  -3.0211  -3.0181  -3.0129  -3.0118  -3.0059  -3.0034
    -3.0010  -2.9718  -2.9712  -2.9540  -2.9527  -2.4081  -2.4044  -2.3856
    -2.3701  -2.3680  -2.3350  -2.3160  -2.3149  -2.3082  -2.3011  -2.1767
    -2.1682  -2.1144  -2.0880  -1.9494  -1.6579  -1.5870  -1.5793  -1.5683
    -1.5626  -1.5367  -1.5063  -1.4127  -1.4079  -1.4047  -1.3985  -1.3780
    -1.3761  -1.3693  -1.3566  -1.3511  -1.3336  -1.3302  -1.3262  -1.2993
    -1.2962  -1.2866  -1.2012  -1.1737  -1.1718  -1.1611  -1.1563  -1.1093
    -1.0065  -1.0032  -1.0030  -0.9698  -0.9553  -0.9548  -0.9139  -0.9110
    -0.8570  -0.8488  -0.7988  -0.7981  -0.7410  -0.7407  -0.7024  -0.7007
    -0.6705  -0.6427  -0.6186  -0.5619  -0.5386  -0.5333  -0.5276  -0.5094
    -0.4439  -0.0909  -0.0854  -0.0843  -0.0540  -0.0421  -0.0405  -0.0347
     0.0204   0.0236   0.0267   0.0543   0.0838   0.1019   0.1219   0.2040
     0.2505   0.2605   0.2619   0.3204   0.3306   0.3758   0.4078   0.4389
     0.4395   0.4468   0.4475   0.4924   0.6680   0.6813   0.6887   0.6936
     0.6973   0.7185   0.7609   0.7657   0.9417   0.9472   0.9502   0.9571
     0.9627   1.0291   1.1113   1.1128   1.1220   1.1280   1.1299   1.1497
     1.1544   1.1600   1.1643   1.1660   1.1688   1.2487   1.2753   1.2804
     1.2882   1.2985   1.3004   1.3171   1.3407   1.3893   1.3909   1.4008
     1.4011   1.4221   1.4307   1.4384   1.4385   1.5095   1.5109   1.5308
     1.5356   1.5362   1.5539   1.5541   1.6294   1.6365   1.6372   1.6595
     1.6599   1.6788   1.8412   1.8423   1.9363   1.9371   1.9711   1.9743
     1.9747   1.9861   2.3623   2.7728   2.8159   2.8333   2.8549   2.8713
     2.8802   4.1460   5.0600   5.1297   5.1480   5.1810   5.1943   5.9102
     6.2872   6.7247   6.7420   6.7592   6.7760   6.7797   6.7894   6.7915

[...]

          k = 0.4000-0.4619 0.0000 ( 88532 PWs)   bands (ev):

   -19.8226 -10.3996  -6.5009  -5.9511  -5.9233  -5.3319  -4.7312  -4.7045
    -4.5531  -4.2056  -4.1703  -4.0303  -4.0034  -3.9164  -3.8873  -3.8100
    -3.7775  -3.7544  -3.6751  -3.6525  -3.6497  -3.6252  -3.6069  -3.5867
    -3.5606  -3.4594  -3.4485  -3.4271  -3.4005  -3.3580  -3.3175  -3.2317
    -3.1922  -3.1334  -3.0492  -3.0398  -3.0329  -3.0158  -2.9769  -2.9070
    -2.8951  -2.8076  -2.7779  -2.6172  -2.6069  -2.5706  -2.4746  -2.4628
    -2.4136  -2.3959  -2.2918  -2.2577  -2.2198  -2.2079  -2.1850  -2.1527
    -2.1291  -2.1040  -2.0709  -2.0027  -1.9918  -1.9703  -1.9591  -1.9515
    -1.9453  -1.9058  -1.8896  -1.8309  -1.7596  -1.7328  -1.6917  -1.6727
    -1.5749  -1.5531  -1.5304  -1.5084  -1.4773  -1.4545  -1.4299  -1.4211
    -1.3373  -1.3313  -1.3215  -1.2875  -1.2768  -1.2424  -1.1931  -1.1495
    -1.1147  -1.1025  -1.0841  -1.0658  -0.9886  -0.9368  -0.9186  -0.8973
    -0.8853  -0.8559  -0.8493  -0.8403  -0.8041  -0.7962  -0.7810  -0.7585
    -0.7393  -0.7150  -0.7001  -0.6920  -0.6799  -0.6662  -0.6600  -0.6329
    -0.5953  -0.5802  -0.5093  -0.3866  -0.3528  -0.2670  -0.2568  -0.2064
    -0.1672  -0.1415  -0.1149  -0.0976  -0.0668  -0.0549  -0.0242  -0.0116
     0.0542   0.0772   0.0966   0.1252   0.1487   0.2030   0.2335   0.2439
     0.2719   0.4215   0.4303   0.4653   0.4943   0.5131   0.5482   0.5910
     0.6050   0.6304   0.6445   0.6527   0.6886   0.7085   0.7358   0.7926
     0.8083   0.8547   0.8789   0.8924   0.9100   0.9259   0.9389   1.0495
     1.0755   1.1541   1.1871   1.2451   1.2986   1.3389   1.3501   1.4239
     1.4663   1.4700   1.5150   1.5704   1.6256   1.6483   1.6704   1.6925
     1.6961   1.7191   1.7493   1.7672   1.8479   1.8542   1.8691   1.8853
     1.9041   1.9101   1.9281   1.9792   2.0899   2.0971   2.1213   2.1302
     2.1389   2.1949   2.2343   2.3146   2.4415   3.1168   3.2762   3.2825
     3.4248   3.5463   3.6563   3.6627   3.6897   3.9091   4.2676   4.2888
     4.4066   4.7450   4.7524   4.8715   4.8861   4.9206   5.0949   5.1819
     5.1907   5.4484   5.6650   5.7154   5.8351   6.1739   6.3714   6.3753

     the Fermi energy is     1.8961 ev

!    total energy              =  -27819.43366293 Ry

     total all-electron energy =  -1326872.810063 Ry
     estimated scf accuracy    <       0.00000096 Ry
     smearing contrib. (-TS)   =       0.00286510 Ry
     internal energy E=F+TS    =  -27819.43652802 Ry

     The total energy is F=E-TS. E is the sum of the following terms:
     one-electron contribution =  -26625.55237059 Ry
     hartree contribution      =   13616.86865049 Ry
     xc contribution           =    -904.80113332 Ry
     ewald contribution        =   11584.68830910 Ry
     one-center paw contrib.   =  -25490.63998371 Ry

     convergence has been achieved in  18 iterations

[...]

     Forces acting on atoms (cartesian axes, Ry/au):

     atom    1 type  1   force =    -0.00006579    0.00026993   -0.00682369
     atom    2 type  1   force =    -0.00047509    0.00007285   -0.00339037
     atom    3 type  1   force =     0.00053984   -0.00001063   -0.00329975
     atom    4 type  1   force =    -0.00022937   -0.00053743   -0.00368320
     atom    5 type  1   force =    -0.00001932    0.00009794   -0.00332192
     atom    6 type  1   force =     0.00026001   -0.00057418   -0.00332920
     atom    7 type  1   force =     0.00027496    0.00043979   -0.00321921
     atom    8 type  1   force =    -0.00032509    0.00036555   -0.00330070
     atom    9 type  1   force =     0.00006326    0.00010022   -0.00334153
     atom   10 type  1   force =    -0.00022737   -0.00038298   -0.00069832
     atom   11 type  1   force =     0.00016978    0.00183894    0.00890976
     atom   12 type  1   force =     0.00006044   -0.00013596   -0.00166069
     atom   13 type  1   force =     0.00202987   -0.00087742    0.00915820
     atom   14 type  1   force =    -0.00188552   -0.00088785    0.00877709
     atom   15 type  1   force =    -0.00028832    0.00005671    0.00222375
     atom   16 type  1   force =    -0.00009637   -0.00020494   -0.00113986
     atom   17 type  1   force =     0.00011627   -0.00002596    0.00179041
     atom   18 type  1   force =    -0.00005306    0.00027137    0.00183408
     atom   19 type  1   force =    -0.00004836   -0.00018257    0.00033487
     atom   20 type  1   force =     0.00016435    0.00000084    0.00021197
     atom   21 type  1   force =    -0.00015793   -0.00011376    0.00013038
     atom   22 type  1   force =    -0.00009000    0.00026161    0.00028424
     atom   23 type  1   force =    -0.00008247    0.00000247    0.00010892
     atom   24 type  1   force =     0.00019940    0.00017052    0.00029192
     atom   25 type  1   force =    -0.00001342    0.00002359    0.00021816
     atom   26 type  1   force =    -0.00011405    0.00007445    0.00032417
     atom   27 type  1   force =     0.00012660   -0.00012676    0.00023443
     atom   28 type  1   force =    -0.00005989   -0.00001166    0.00046094
     atom   29 type  1   force =    -0.00002961    0.00028937   -0.00007047
     atom   30 type  1   force =     0.00005096    0.00022204   -0.00016382
     atom   31 type  1   force =     0.00022849   -0.00015860   -0.00013780
     atom   32 type  1   force =    -0.00009407    0.00042461    0.00066025
     atom   33 type  1   force =    -0.00030174   -0.00017030   -0.00007328
     atom   34 type  1   force =     0.00040395   -0.00014012    0.00015455
     atom   35 type  1   force =    -0.00038509   -0.00014452    0.00008112
     atom   36 type  1   force =     0.00009666    0.00005975    0.00033328
     atom   37 type  2   force =     0.00090679    0.00268267    0.00361702
     atom   38 type  3   force =     0.00045869    0.00065502    0.00012103
     atom   39 type  3   force =    -0.00036531   -0.00010183    0.00042176
     atom   40 type  3   force =     0.00281824   -0.00003665    0.00121348
     atom   41 type  4   force =    -0.00356132   -0.00355616   -0.00424198

     Total force =     0.008799     Total SCF correction =     0.002933
     SCF correction compared to forces is large: reduce conv_thr to get better values

[...]

     negative rho (up, down):  1.276E-02 0.000E+00

     negative rho (up, down):  1.276E-02 0.000E+00
 BEEFens 2000 ensemble energies
             -0.605426341521440E+02
             -0.360500243929835E+01
             -0.158094519715671E+02
              0.428575184489127E+02
             -0.220843060008540E+02
             -0.205090332079152E+02
             -0.351290434449331E+02
             -0.862988528229321E+02
             -0.464683954449668E+02
             -0.472214902697576E+02
             -0.368521440814631E+02
              0.226269521858372E+01
              0.405347145105284E+01
              0.765684492107349E+01
              0.264604067215640E+01
              0.473979787776389E+02
             -0.208534085925875E+02
             -0.230189124440095E+02
              0.192273676524135E+02
             -0.112182925934846E+03
              0.535225030835839E+02
             -0.289525880703134E+02
             -0.332863275433682E+01
             -0.114038181827419E+02
             -0.885084853483659E+01
             -0.462725607672027E+01
              0.881148460394617E+02
             -0.186439997377292E+02
             -0.899129788308039E+01
             -0.517153968582477E+02
              0.814386848343133E+02
             -0.187434421024918E+02
             -0.374070792235979E+02
              0.249015316307047E+02
             -0.283999463062668E+01
              0.163256471456838E+02
             -0.486979363032827E+01
              0.108294874885402E+02
              0.287365571120442E+02
             -0.103088937259723E+03
              0.557424951107608E+02
              0.142125914392629E+02
             -0.167845146814727E+01
             -0.361007878332645E+02
              0.122916220362129E+02
             -0.146442547947155E+02
              0.397243816024131E+02
              0.364201958281285E+02
             -0.307928892701087E+02
             -0.274328156516516E+02
             -0.327677018655012E+02
             -0.351392340204505E+02
              0.135771834874318E+02
             -0.489809357980821E+02
              0.115229690483203E+02
              0.621957237388328E+02
              0.633697312131093E+02
              0.355401418599024E+02
              0.153839403749948E+02
              0.269837856697869E+02
[...]
             -0.704571642932694E+02
             -0.903287728515352E+00
             -0.247309095898510E+01
             -0.879780222358431E+01
             -0.181991999262436E+01
             -0.651556560492394E+02
             -0.210665031401035E+02
              0.536053489695900E+01
              0.895816479184845E+01
              0.467750758004842E+02
             -0.396693981757203E+02
              0.656501957794200E+02
             -0.424503802658404E+02
              0.209732344425344E+02
              0.349274647899217E+02

 BEEF-vdW xc energy contributions
           1 :   -781.389645663139
           2 :    717.949636499840
           3 :   -608.102556703574
           4 :    478.764147109334
           5 :   -357.273806863088
           6 :    263.344165386831
           7 :   -204.609354495008
           8 :    176.606971275994
           9 :   -166.755906641174
          10 :    160.460985967914
          11 :   -146.874809990345
          12 :    122.152495121466
          13 :   -89.3315525614802
          14 :    55.4445056530728
          15 :   -27.5363417627212
          16 :    9.39013556634018
          17 :  -0.226769828955526
          18 :   -4.35263097912241
          19 :    9.87489316114045
          20 :   -20.2712041529444
          21 :    36.1770622557309
          22 :   -54.9264681325889
          23 :    72.0745998916627
          24 :   -83.6202083636319
          25 :    87.8334183800988
          26 :   -85.8821293789365
          27 :    81.0641148441098
          28 :   -77.1131128576137
          29 :    76.4293409929983
          30 :   -79.0688504848731
          31 :   -85.5955416555778
          32 :   -65.6108724745786

     Writing output data file ./pwscf.save/

     General routines

     Parallel routines

   This run was terminated on:  18:13:55  26Sep2022

   JOB DONE.