     Program PWSCF v.6.7MaX starts on 20May2022 at 15:46:12

     Reading input from h2co2ch3-ensemble.in
Warning: card &CELL ignored
Warning: card / ignored

     Current dimensions of program PWSCF are:
     Max number of different atomic species (ntypx) = 10
     Max number of k-points (npk) =  40000
     Max angular momentum in pseudopotentials (lmaxx) =  3
     file Pt.pbe-n-kjpaw_psl.1.0.0.UPF: wavefunction(s)  6S 5D renormalized
     file O.pbe-nl-kjpaw_psl.1.0.0.UPF: wavefunction(s)  2S 2P renormalized
     file C.pbe-n-kjpaw_psl.1.0.0.UPF: wavefunction(s)  2S 2P renormalized
     file H.pbe-kjpaw_psl.1.0.0.UPF: wavefunction(s)  1S renormalized

     IMPORTANT: XC functional enforced from input :
     Exchange-correlation= BEEF-VDW
                           (   1   4  43  14   2   0   0)
     Any further DFT definition will be discarded
     Please, verify this is what you really want

     Subspace diagonalization in iterative solution of the eigenvalue problem:
     a serial algorithm will be used

     bravais-lattice index     =            0
     lattice parameter (alat)  =      16.0349  a.u.
     unit-cell volume          =   11867.8695 (a.u.)^3
     number of atoms/cell      =           45
     number of atomic types    =            4
     number of electrons       =       385.00
     number of Kohn-Sham states=          232
     kinetic-energy cutoff     =      60.0000  Ry
     charge density cutoff     =     240.0000  Ry
     scf convergence threshold =      1.0E-06
     mixing beta               =       0.7000
     number of iterations used =            8  local-TF  mixing
     Exchange-correlation= BEEF-VDW
                           (   1   4  43  14   2   0   0)

     celldm(1)=  16.034858  celldm(2)=   0.000000  celldm(3)=   0.000000
     celldm(4)=   0.000000  celldm(5)=   0.000000  celldm(6)=   0.000000

     crystal axes: (cart. coord. in units of alat)
               a(1) = (   1.000000   0.000000   0.000000 )
               a(2) = (   0.500000   0.866025   0.000000 )
               a(3) = (   0.000000   0.000000   3.323891 )

     reciprocal axes: (cart. coord. in units 2 pi/alat)
               b(1) = (  1.000000 -0.577350  0.000000 )
               b(2) = (  0.000000  1.154701  0.000000 )
               b(3) = (  0.000000  0.000000  0.300852 )

     PseudoPot. # 1 for Pt read from file:
     /users/bkreitz1/quantum-espresso/potentials/Pt.pbe-n-kjpaw_psl.1.0.0.UPF
     MD5 check sum: 04dc8a03c51ece93fc7b5889c2958091
     Pseudo is Projector augmented-wave + core cor, Zval = 10.0
     Generated using 'atomic' code by A. Dal Corso  v.6.7MaX
     Shape of augmentation charge: PSQ
     Using radial grid of 1277 points,  6 beta functions with:
                l(1) =   0
                l(2) =   0
                l(3) =   1
                l(4) =   1
                l(5) =   2
                l(6) =   2
     Q(r) pseudized with 0 coefficients

     PseudoPot. # 2 for O  read from file:
     /users/bkreitz1/quantum-espresso/potentials/O.pbe-nl-kjpaw_psl.1.0.0.UPF
     MD5 check sum: eef08af8b58d9ec80f8fdb78829eb7cf
     Pseudo is Projector augmented-wave + core cor, Zval =  6.0
     Generated using 'atomic' code by A. Dal Corso  v.6.7MaX
     Shape of augmentation charge: PSQ
     Using radial grid of 1095 points,  4 beta functions with:
                l(1) =   0
                l(2) =   0
                l(3) =   1
                l(4) =   1
     Q(r) pseudized with 0 coefficients

     PseudoPot. # 3 for C  read from file:
     /users/bkreitz1/quantum-espresso/potentials/C.pbe-n-kjpaw_psl.1.0.0.UPF
     MD5 check sum: a169b0ebad56f5ec0d79c4633f80bf22
     Pseudo is Projector augmented-wave + core cor, Zval =  4.0
     Generated using 'atomic' code by A. Dal Corso  v.6.7MaX
     Shape of augmentation charge: PSQ
     Using radial grid of 1073 points,  4 beta functions with:
                l(1) =   0
                l(2) =   0
                l(3) =   1
                l(4) =   1
     Q(r) pseudized with 0 coefficients

     PseudoPot. # 4 for H  read from file:
     /users/bkreitz1/quantum-espresso/potentials/H.pbe-kjpaw_psl.1.0.0.UPF
     MD5 check sum: ae98473e6dc62675f0d0baffdab24f65
     Pseudo is Projector augmented-wave, Zval =  1.0
     Generated using 'atomic' code by A. Dal Corso  v.6.7MaX
     Shape of augmentation charge: PSQ
     Using radial grid of  929 points,  2 beta functions with:
                l(1) =   0
                l(2) =   0
     Q(r) pseudized with 0 coefficients

     atomic species   valence    mass     pseudopotential
        Pt            10.00   195.08400     Pt( 1.00)
        O              6.00    15.99900     O ( 1.00)
        C              4.00    12.01100     C ( 1.00)
        H              1.00     1.00800     H ( 1.00)

     No symmetry found

   Cartesian axes

     site n.     atom                  positions (alat units)
         1           Pt  tau(   1) = (   0.0000000   0.0000000   1.0017346  )
         2           Pt  tau(   2) = (   0.3333333   0.0000000   1.0017346  )
         3           Pt  tau(   3) = (   0.6666667   0.0000000   1.0017346  )
         4           Pt  tau(   4) = (   0.1666667   0.2886751   1.0017346  )
         5           Pt  tau(   5) = (   0.5000000   0.2886751   1.0017346  )
         6           Pt  tau(   6) = (   0.8333333   0.2886751   1.0017346  )
         7           Pt  tau(   7) = (   0.3333333   0.5773503   1.0017346  )
         8           Pt  tau(   8) = (   0.6666667   0.5773503   1.0017346  )
         9           Pt  tau(   9) = (   1.0000000   0.5773503   1.0017346  )
        10           Pt  tau(  10) = (   0.1666667   0.0962250   1.2739001  )
        11           Pt  tau(  11) = (   0.5000000   0.0962250   1.2739001  )
        12           Pt  tau(  12) = (   0.8333333   0.0962250   1.2739001  )
        13           Pt  tau(  13) = (   0.3333333   0.3849002   1.2739001  )
        14           Pt  tau(  14) = (   0.6666667   0.3849002   1.2739001  )
        15           Pt  tau(  15) = (   1.0000000   0.3849002   1.2739001  )
        16           Pt  tau(  16) = (   0.5000000   0.6735753   1.2739001  )
        17           Pt  tau(  17) = (   0.8333333   0.6735753   1.2739001  )
        18           Pt  tau(  18) = (   1.1666667   0.6735753   1.2739001  )
        19           Pt  tau(  19) = (  -0.0008340   0.1919664   1.5421252  )
        20           Pt  tau(  20) = (   0.3328369   0.1908462   1.5435184  )
        21           Pt  tau(  21) = (   0.6660521   0.1907239   1.5451652  )
        22           Pt  tau(  22) = (   0.1665863   0.4805372   1.5406858  )
        23           Pt  tau(  23) = (   0.4992066   0.4819507   1.5398896  )
        24           Pt  tau(  24) = (   0.8320923   0.4805122   1.5404457  )
        25           Pt  tau(  25) = (   0.3303617   0.7708639   1.5473642  )
        26           Pt  tau(  26) = (   0.6674086   0.7705733   1.5440474  )
        27           Pt  tau(  27) = (   0.9998812   0.7701958   1.5451948  )
        28           Pt  tau(  28) = (  -0.0006175  -0.0005548   1.8165902  )
        29           Pt  tau(  29) = (   0.3293479  -0.0010425   1.8216907  )
        30           Pt  tau(  30) = (   0.6676536  -0.0003419   1.8280317  )
        31           Pt  tau(  31) = (   0.1645595   0.2889757   1.8151400  )
        32           Pt  tau(  32) = (   0.4987964   0.2919518   1.8126403  )
        33           Pt  tau(  33) = (   0.8332200   0.2897832   1.8157051  )
        34           Pt  tau(  34) = (   0.3335175   0.5750573   1.8160669  )
        35           Pt  tau(  35) = (   0.6647763   0.5754868   1.8160439  )
        36           Pt  tau(  36) = (   0.9987844   0.5735287   1.8116328  )
        37           O   tau(  37) = (   0.6476845   0.0143368   2.0702335  )
        38           C   tau(  38) = (   0.5311546  -0.0719157   2.1395124  )
        39           O   tau(  39) = (   0.3693288  -0.0170681   2.1061769  )
        40           C   tau(  40) = (   0.3235785   0.1202757   2.1965846  )
        41           H   tau(  41) = (   0.5273091  -0.1959027   2.1010679  )
        42           H   tau(  42) = (   0.5474178  -0.0643552   2.2678582  )
        43           H   tau(  43) = (   0.2016627   0.1453317   2.1656235  )
        44           H   tau(  44) = (   0.3321153   0.0924655   2.3221565  )
        45           H   tau(  45) = (   0.3981540   0.2214177   2.1693819  )

     number of k points=    13  Marzari-Vanderbilt smearing, width (Ry)=  0.0200
                       cart. coord. in units 2pi/alat
        k(    1) = (   0.0000000   0.0000000   0.0000000), wk =   0.0800000
        k(    2) = (   0.0000000   0.2309401   0.0000000), wk =   0.1600000
        k(    3) = (   0.0000000   0.4618802   0.0000000), wk =   0.1600000
        k(    4) = (   0.2000000  -0.1154701   0.0000000), wk =   0.1600000
        k(    5) = (   0.2000000   0.1154701   0.0000000), wk =   0.1600000
        k(    6) = (   0.2000000   0.3464102   0.0000000), wk =   0.1600000
        k(    7) = (   0.2000000  -0.5773503   0.0000000), wk =   0.1600000
        k(    8) = (   0.2000000  -0.3464102   0.0000000), wk =   0.1600000
        k(    9) = (   0.4000000  -0.2309401   0.0000000), wk =   0.1600000
        k(   10) = (   0.4000000  -0.0000000   0.0000000), wk =   0.1600000
        k(   11) = (   0.4000000   0.2309401   0.0000000), wk =   0.1600000
        k(   12) = (   0.4000000  -0.6928203   0.0000000), wk =   0.1600000
        k(   13) = (   0.4000000  -0.4618802   0.0000000), wk =   0.1600000

     Check: negative core charge=   -0.000002

     Initial potential from superposition of free atoms

     starting charge  384.99376, renormalised to  385.00000

     negative rho (up, down):  1.218E-02 0.000E+00

     %%%%%%%%%%%%%%%%%%%%%%%%%%%%%%%%%%%%%%%%%%%%%%%%%%%%%%%%%%%%%%%%%%%%%%%%
     %                                                                      %
     % You are using vdW-DF, which was implemented by the Thonhauser group. %
     % Please cite the following two papers that made this development      %
     % possible and the two reviews that describe the various versions:     %
     %                                                                      %
     %   T. Thonhauser et al., PRL 115, 136402 (2015).                      %
     %   T. Thonhauser et al., PRB 76, 125112 (2007).                       %
     %   K. Berland et al., Rep. Prog. Phys. 78, 066501 (2015).             %
     %   D.C. Langreth et al., J. Phys.: Condens. Matter 21, 084203 (2009). %
     %                                                                      %
     %                                                                      %
     % If you are calculating the stress with vdW-DF, please also cite:     %
     %                                                                      %
     %   R. Sabatini et al., J. Phys.: Condens. Matter 24, 424209 (2012).   %
     %                                                                      %
     %%%%%%%%%%%%%%%%%%%%%%%%%%%%%%%%%%%%%%%%%%%%%%%%%%%%%%%%%%%%%%%%%%%%%%%%

     Starting wfcs are  345 randomized atomic wfcs
     Checking if some PAW data can be deallocated...

     Self-consistent Calculation

     iteration #  1     ecut=    60.00 Ry     beta= 0.70
     Davidson diagonalization with overlap
     ethr =  1.00E-02,  avg # of iterations =  2.7

     Threshold (ethr) on eigenvalues was too large:
     Diagonalizing with lowered threshold

     Davidson diagonalization with overlap
     ethr =  7.29E-04,  avg # of iterations =  2.8

[...]

     total energy              =  -27883.06794892 Ry
     estimated scf accuracy    <       2.99169539 Ry

[...]

     iteration #  4     ecut=    60.00 Ry     beta= 0.70
     Davidson diagonalization with overlap
     c_bands:  3 eigenvalues not converged
     c_bands:  2 eigenvalues not converged
     ethr =  1.06E-04,  avg # of iterations = 11.8

[...]

     iteration # 10     ecut=    60.00 Ry     beta= 0.70
     Davidson diagonalization with overlap
     c_bands:  1 eigenvalues not converged
     ethr =  1.09E-06,  avg # of iterations = 11.0

[...]

     total energy              =  -27883.30692027 Ry
     estimated scf accuracy    <       0.00000309 Ry

     iteration # 21     ecut=    60.00 Ry     beta= 0.70
     Davidson diagonalization with overlap
     ethr =  8.04E-10,  avg # of iterations =  2.0

[...]

     End of self-consistent calculation

          k = 0.0000 0.0000 0.0000 ( 93155 PWs)   bands (ev):

   -19.9425 -18.0541 -11.1904  -9.0968  -7.0683  -6.1308  -5.7110  -5.5984
    -5.2199  -4.6852  -4.6589  -4.6478  -4.6442  -4.6311  -4.6238  -4.6131
    -4.6111  -4.1160  -4.0990  -4.0895  -4.0819  -4.0803  -4.0714  -3.9523
    -3.7205  -3.6329  -3.6196  -3.6148  -3.6021  -3.6018  -3.5815  -3.4038
    -3.3986  -3.3936  -3.3922  -3.3809  -3.3486  -3.1872  -3.1734  -3.1715
    -3.1672  -3.1656  -3.1597  -3.1575  -3.1470  -3.1427  -3.1361  -3.1243
    -3.1013  -2.7233  -2.5585  -2.5493  -2.5386  -2.5354  -2.5059  -2.4838
    -2.4757  -2.4673  -2.4620  -2.4457  -2.3307  -2.2943  -2.2486  -2.1389
    -1.8587  -1.7777  -1.7378  -1.7256  -1.7223  -1.7042  -1.6739  -1.6218
    -1.5733  -1.5541  -1.5522  -1.5421  -1.5290  -1.5232  -1.5163  -1.4959
    -1.4936  -1.4865  -1.4829  -1.4664  -1.4516  -1.4483  -1.3809  -1.3240
    -1.3188  -1.3009  -1.2944  -1.2869  -1.1916  -1.1647  -1.1509  -1.1405
    -1.1304  -1.1125  -1.1043  -1.0738  -1.0625  -1.0017  -0.9834  -0.9581
    -0.9550  -0.9367  -0.8734  -0.8716  -0.8343  -0.8313  -0.8114  -0.7915
    -0.7028  -0.6897  -0.6820  -0.6715  -0.6507  -0.4668  -0.3800  -0.3200
    -0.2233  -0.2136  -0.1968  -0.1924  -0.1848  -0.1775  -0.1373  -0.1155
    -0.1108  -0.0868  -0.0485  -0.0170   0.0142   0.0334   0.1055   0.1291
     0.1329   0.1681   0.2093   0.2337   0.2800   0.2911   0.3048   0.3064
     0.3100   0.4287   0.5254   0.5456   0.5468   0.5589   0.5664   0.6113
     0.6231   0.6738   0.8064   0.8097   0.8201   0.8301   0.8496   0.8741
     0.9481   0.9574   0.9817   0.9900   0.9984   1.0116   1.0178   1.0262
     1.0414   1.0519   1.0900   1.1186   1.1257   1.1339   1.1544   1.1741
     1.1840   1.2121   1.2269   1.2330   1.2384   1.2623   1.2730   1.2810
     1.2856   1.3105   1.3299   1.3700   1.3773   1.3806   1.3844   1.4013
     1.4093   1.4133   1.4932   1.4984   1.5062   1.5203   1.5216   1.6164
     1.7067   1.7208   1.7975   1.8137   1.8253   1.8378   1.8402   1.8466
     1.9431   2.6674   2.7090   2.7228   2.7355   2.7569   2.9791   3.5605
     5.0228   5.0283   5.0481   5.0656   5.2247   5.5758   5.7445   6.4530
     6.5872   6.5949   6.6288   6.6353   6.6493   6.6610   6.8197   7.0428

[...]

          k = 0.4000-0.4619 0.0000 ( 93134 PWs)   bands (ev):

   -19.9425 -18.0541 -11.1906  -9.0958  -6.1979  -6.0990  -5.9872  -5.6197
    -5.4706  -5.2236  -4.8300  -4.8162  -4.3343  -4.3204  -4.1846  -4.1516
    -4.0587  -4.0428  -3.9819  -3.9290  -3.9277  -3.8414  -3.8124  -3.8095
    -3.7745  -3.7648  -3.7575  -3.7421  -3.6597  -3.6043  -3.5967  -3.5886
    -3.5549  -3.5412  -3.4710  -3.3824  -3.3434  -3.2891  -3.2102  -3.1958
    -3.1821  -3.1697  -3.1460  -3.0724  -3.0582  -2.9618  -2.9492  -2.7941
    -2.7679  -2.7583  -2.6661  -2.6185  -2.5835  -2.5639  -2.5117  -2.4400
    -2.4066  -2.3671  -2.3545  -2.3314  -2.2923  -2.2662  -2.2464  -2.1786
    -2.1527  -2.1252  -2.1164  -2.1072  -2.0981  -2.0853  -2.0388  -2.0236
    -1.9414  -1.8890  -1.8381  -1.8318  -1.7354  -1.7251  -1.6819  -1.6661
    -1.6355  -1.6064  -1.5891  -1.5604  -1.5122  -1.4947  -1.4804  -1.4613
    -1.4381  -1.4072  -1.3839  -1.3398  -1.2962  -1.2738  -1.2442  -1.2324
    -1.1777  -1.1434  -1.0908  -1.0781  -1.0456  -1.0362  -1.0102  -0.9928
    -0.9811  -0.9602  -0.9435  -0.9312  -0.9047  -0.8883  -0.8652  -0.8403
    -0.8374  -0.8216  -0.8153  -0.7840  -0.7600  -0.7464  -0.7260  -0.6609
    -0.5941  -0.4951  -0.4532  -0.4164  -0.4003  -0.3770  -0.3055  -0.2872
    -0.2673  -0.2191  -0.1954  -0.1780  -0.1471  -0.1293  -0.1133  -0.0687
    -0.0473  -0.0149   0.0361   0.0697   0.0959   0.1264   0.2175   0.2431
     0.2955   0.3371   0.3660   0.3856   0.4027   0.4553   0.4819   0.4946
     0.5177   0.5432   0.5689   0.5875   0.6229   0.6814   0.6972   0.7127
     0.7494   0.7688   0.7719   0.7989   0.8584   0.8888   0.9434   1.0493
     1.0627   1.1172   1.1690   1.2047   1.2093   1.2998   1.3380   1.3596
     1.3838   1.4791   1.4852   1.5087   1.5437   1.5562   1.5773   1.6040
     1.6119   1.6541   1.6921   1.7185   1.7327   1.7495   1.7720   1.7861
     1.8237   1.8703   1.9472   1.9604   1.9899   1.9947   2.0130   2.0540
     2.1110   2.1800   2.3028   2.4847   3.1339   3.1371   3.3872   3.4312
     3.5163   3.5277   3.5625   3.6842   4.1363   4.1510   4.1829   4.6102
     4.6665   4.7151   4.7466   4.7644   4.9774   5.0555   5.1689   5.3073
     5.5556   5.6012   5.7170   6.2005   6.2273   6.2557   6.4047   6.4427

     the Fermi energy is     1.7626 ev

!    total energy              =  -27883.30691972 Ry

     total all-electron energy =  -1327103.294303 Ry
     estimated scf accuracy    <       0.00000070 Ry
     smearing contrib. (-TS)   =      -0.00052945 Ry
     internal energy E=F+TS    =  -27883.30639027 Ry

     The total energy is F=E-TS. E is the sum of the following terms:
     one-electron contribution =  -30020.34596933 Ry
     hartree contribution      =   15317.76060527 Ry
     xc contribution           =    -918.94328538 Ry
     ewald contribution        =   13245.55524328 Ry
     one-center paw contrib.   =  -25507.33298412 Ry

     convergence has been achieved in  21 iterations

[...]

     Forces acting on atoms (cartesian axes, Ry/au):

     atom    1 type  1   force =     0.00045868   -0.00101964   -0.00271681
     atom    2 type  1   force =    -0.00052171   -0.00067441   -0.00357965
     atom    3 type  1   force =     0.00043102   -0.00050894   -0.00327616
     atom    4 type  1   force =     0.00033046    0.00050855   -0.00293468
     atom    5 type  1   force =     0.00003493    0.00111028   -0.00289161
     atom    6 type  1   force =     0.00002125    0.00107453   -0.00317457
     atom    7 type  1   force =     0.00053519   -0.00000604   -0.00590602
     atom    8 type  1   force =     0.00052677    0.00001931   -0.00764214
     atom    9 type  1   force =    -0.00031115   -0.00012940   -0.00337202
     atom   10 type  1   force =     0.00029113   -0.00083097    0.00427446
     atom   11 type  1   force =     0.00063373   -0.00099066    0.00755251
     atom   12 type  1   force =    -0.00192058   -0.00189915    0.00838459
     atom   13 type  1   force =    -0.00014896   -0.00112460    0.00213864
     atom   14 type  1   force =    -0.00025865   -0.00093991   -0.00011743
     atom   15 type  1   force =    -0.00058565   -0.00077569    0.00017671
     atom   16 type  1   force =    -0.00054977    0.00263572    0.00638728
     atom   17 type  1   force =    -0.00083546    0.00118036    0.00161267
     atom   18 type  1   force =     0.00138862    0.00238934    0.00653356
     atom   19 type  1   force =    -0.00004859    0.00007945   -0.00008014
     atom   20 type  1   force =     0.00011137    0.00002510    0.00012228
     atom   21 type  1   force =    -0.00001301    0.00005599    0.00014213
     atom   22 type  1   force =    -0.00011082    0.00006171   -0.00024372
     atom   23 type  1   force =     0.00003855   -0.00011834   -0.00040826
     atom   24 type  1   force =     0.00001472    0.00001823   -0.00034328
     atom   25 type  1   force =    -0.00014202    0.00008618    0.00011175
     atom   26 type  1   force =     0.00006850   -0.00006645    0.00007560
     atom   27 type  1   force =     0.00000602    0.00000200    0.00009436
     atom   28 type  1   force =    -0.00001733   -0.00000120   -0.00002171
     atom   29 type  1   force =     0.00011677    0.00012612   -0.00047426
     atom   30 type  1   force =    -0.00012869   -0.00000500    0.00005153
     atom   31 type  1   force =     0.00006708    0.00010680    0.00029183
     atom   32 type  1   force =     0.00006406   -0.00001896    0.00003226
     atom   33 type  1   force =    -0.00001291    0.00009404    0.00011321
     atom   34 type  1   force =    -0.00000484    0.00003013    0.00011253
     atom   35 type  1   force =     0.00004660    0.00000705    0.00007379
     atom   36 type  1   force =    -0.00001897    0.00001843    0.00003184
     atom   37 type  2   force =    -0.00022720   -0.00005790    0.00055532
     atom   38 type  3   force =    -0.00069170   -0.00070158   -0.00100348
     atom   39 type  2   force =     0.00056296    0.00087975    0.00041972
     atom   40 type  3   force =    -0.00024932   -0.00168956    0.00126420
     atom   41 type  4   force =    -0.00002091    0.00008875    0.00004701
     atom   42 type  4   force =    -0.00015977   -0.00010018   -0.00023338
     atom   43 type  4   force =     0.00055263    0.00040704   -0.00000452
     atom   44 type  4   force =    -0.00060443   -0.00075629   -0.00002850
     atom   45 type  4   force =     0.00128141    0.00140999   -0.00214743

     Total force =     0.004337     Total SCF correction =     0.001301
     SCF correction compared to forces is large: reduce conv_thr to get better values

[...]

     negative rho (up, down):  1.396E-02 0.000E+00

     negative rho (up, down):  1.396E-02 0.000E+00
 BEEFens 2000 ensemble energies
             -0.615907312792052E+02
             -0.365400592202269E+01
             -0.160234643864762E+02
              0.435696986769656E+02
             -0.224126283980317E+02
             -0.207668993852274E+02
             -0.359103832941084E+02
             -0.878683021626757E+02
             -0.470333410952657E+02
             -0.478225893180079E+02
             -0.374532239166947E+02
              0.237579637800176E+01
              0.412104348030655E+01
              0.755310212618872E+01
              0.271442193970628E+01
              0.481701034141289E+02
             -0.211676504405722E+02
             -0.231853114031815E+02
              0.196051719404638E+02
             -0.113983863631436E+03
              0.544559927319719E+02
             -0.292570997584099E+02
             -0.342440408126203E+01
             -0.115456572884463E+02
             -0.881263157369369E+01
             -0.471750726810791E+01
              0.895331725526048E+02
             -0.190519195991195E+02
             -0.913343440969288E+01
             -0.526493152862652E+02
              0.825444760965504E+02
             -0.188049940776349E+02
             -0.380815939428398E+02
              0.252036770381301E+02
             -0.288384305780903E+01
              0.167913984778115E+02
             -0.483929655165178E+01
              0.108243362550528E+02
              0.293392158313589E+02
             -0.104711911955378E+03
              0.566264244173246E+02
              0.144267580883906E+02
             -0.188702773968100E+01
             -0.365984130675466E+02
              0.124851896529909E+02
             -0.149418459884068E+02
              0.405442213846977E+02
              0.369907837126314E+02
             -0.310935377775155E+02
             -0.279499680734089E+02
             -0.332652633243734E+02
             -0.357414407846204E+02
              0.139181295279295E+02
             -0.498396266059906E+02
              0.117935964577638E+02
              0.631976652138985E+02
              0.646070767198968E+02
              0.360474814998214E+02
              0.156561031354871E+02
              0.275155166366801E+02
[...]
             -0.716874024279275E+02
             -0.828770013915573E+00
             -0.245740157133006E+01
             -0.898188642999048E+01
             -0.175945044770367E+01
             -0.662167205835661E+02
             -0.212098402999444E+02
              0.556359606281294E+01
              0.918100120722039E+01
              0.476026894348487E+02
             -0.403813681170445E+02
              0.664969698133833E+02
             -0.430830423664902E+02
              0.214253616171645E+02
              0.356422339110336E+02

 BEEF-vdW xc energy contributions
           1 :   -793.235228725296
           2 :    728.055600693681
           3 :   -615.461725173718
           4 :    483.286318705161
           5 :   -359.512726474458
           6 :    264.094677958633
           7 :   -204.593470639398
           8 :    176.310468403885
           9 :   -166.407004708217
          10 :    160.107942578796
          11 :   -146.499997194743
          12 :    121.758202652468
          13 :   -88.9641285211115
          14 :    55.1655303278229
          15 :   -27.3760895608443
          16 :    9.32337165440288
          17 :  -0.190584033800064
          18 :   -4.41655364209078
          19 :    9.98945038096485
          20 :   -20.4236060231848
          21 :    36.3424626423104
          22 :   -55.0982429944838
          23 :    72.2780170481942
          24 :   -83.8975887744348
          25 :    88.2147559011173
          26 :   -86.3624258665079
          27 :    81.5993090472464
          28 :   -77.6343665859864
          29 :    76.8674425635782
          30 :   -79.3743057654979
          31 :   -87.0934142034447
          32 :   -66.5909802483944

     Writing output data file ./pwscf.save/

     General routines

     Parallel routines

   This run was terminated on:  20:39: 5  20May2022

   JOB DONE.