     Program PWSCF v.6.7MaX starts on 26Sep2022 at 21:10:17

     Reading input from h2o-ensemble.in
Warning: card &CELL ignored
Warning: card / ignored

     Current dimensions of program PWSCF are:
     Max number of different atomic species (ntypx) = 10
     Max number of k-points (npk) =  40000
     Max angular momentum in pseudopotentials (lmaxx) =  3
     file Pt.pbe-n-kjpaw_psl.1.0.0.UPF: wavefunction(s)  6S 5D renormalized
     file O.pbe-nl-kjpaw_psl.1.0.0.UPF: wavefunction(s)  2S 2P renormalized
     file H.pbe-kjpaw_psl.1.0.0.UPF: wavefunction(s)  1S renormalized

     IMPORTANT: XC functional enforced from input :
     Exchange-correlation= BEEF-VDW
                           (   1   4  43  14   2   0   0)
     Any further DFT definition will be discarded
     Please, verify this is what you really want

     Subspace diagonalization in iterative solution of the eigenvalue problem:
     a serial algorithm will be used

     bravais-lattice index     =            0
     lattice parameter (alat)  =      16.0349  a.u.
     unit-cell volume          =   11221.5923 (a.u.)^3
     number of atoms/cell      =           39
     number of atomic types    =            3
     number of electrons       =       368.00
     number of Kohn-Sham states=          221
     kinetic-energy cutoff     =      60.0000  Ry
     charge density cutoff     =     240.0000  Ry
     scf convergence threshold =      1.0E-06
     mixing beta               =       0.7000
     number of iterations used =            8  local-TF  mixing
     Exchange-correlation= BEEF-VDW
                           (   1   4  43  14   2   0   0)

     celldm(1)=  16.034858  celldm(2)=   0.000000  celldm(3)=   0.000000
     celldm(4)=   0.000000  celldm(5)=   0.000000  celldm(6)=   0.000000

     crystal axes: (cart. coord. in units of alat)
               a(1) = (   1.000000   0.000000   0.000000 )
               a(2) = (   0.500000   0.866025   0.000000 )
               a(3) = (   0.000000   0.000000   3.142885 )

     reciprocal axes: (cart. coord. in units 2 pi/alat)
               b(1) = (  1.000000 -0.577350  0.000000 )
               b(2) = (  0.000000  1.154701  0.000000 )
               b(3) = (  0.000000  0.000000  0.318179 )

     PseudoPot. # 1 for Pt read from file:
     /users/bkreitz1/quantum-espresso/potentials/Pt.pbe-n-kjpaw_psl.1.0.0.UPF
     MD5 check sum: 04dc8a03c51ece93fc7b5889c2958091
     Pseudo is Projector augmented-wave + core cor, Zval = 10.0
     Generated using 'atomic' code by A. Dal Corso  v.6.7MaX
     Shape of augmentation charge: PSQ
     Using radial grid of 1277 points,  6 beta functions with:
                l(1) =   0
                l(2) =   0
                l(3) =   1
                l(4) =   1
                l(5) =   2
                l(6) =   2
     Q(r) pseudized with 0 coefficients

     PseudoPot. # 2 for O  read from file:
     /users/bkreitz1/quantum-espresso/potentials/O.pbe-nl-kjpaw_psl.1.0.0.UPF
     MD5 check sum: eef08af8b58d9ec80f8fdb78829eb7cf
     Pseudo is Projector augmented-wave + core cor, Zval =  6.0
     Generated using 'atomic' code by A. Dal Corso  v.6.7MaX
     Shape of augmentation charge: PSQ
     Using radial grid of 1095 points,  4 beta functions with:
                l(1) =   0
                l(2) =   0
                l(3) =   1
                l(4) =   1
     Q(r) pseudized with 0 coefficients

     PseudoPot. # 3 for H  read from file:
     /users/bkreitz1/quantum-espresso/potentials/H.pbe-kjpaw_psl.1.0.0.UPF
     MD5 check sum: ae98473e6dc62675f0d0baffdab24f65
     Pseudo is Projector augmented-wave, Zval =  1.0
     Generated using 'atomic' code by A. Dal Corso  v.6.7MaX
     Shape of augmentation charge: PSQ
     Using radial grid of  929 points,  2 beta functions with:
                l(1) =   0
                l(2) =   0
     Q(r) pseudized with 0 coefficients

     atomic species   valence    mass     pseudopotential
        Pt            10.00   195.08400     Pt( 1.00)
        O              6.00    15.99900     O ( 1.00)
        H              1.00     1.00800     H ( 1.00)

     No symmetry found

   Cartesian axes

     site n.     atom                  positions (alat units)
         1           Pt  tau(   1) = (   0.0000000   0.0000000   1.0017346  )
         2           Pt  tau(   2) = (   0.3333333   0.0000000   1.0017346  )
         3           Pt  tau(   3) = (   0.6666667   0.0000000   1.0017346  )
         4           Pt  tau(   4) = (   0.1666667   0.2886751   1.0017346  )
         5           Pt  tau(   5) = (   0.5000000   0.2886751   1.0017346  )
         6           Pt  tau(   6) = (   0.8333333   0.2886751   1.0017346  )
         7           Pt  tau(   7) = (   0.3333333   0.5773503   1.0017346  )
         8           Pt  tau(   8) = (   0.6666667   0.5773503   1.0017346  )
         9           Pt  tau(   9) = (   1.0000000   0.5773503   1.0017346  )
        10           Pt  tau(  10) = (   0.1666667   0.0962250   1.2739001  )
        11           Pt  tau(  11) = (   0.5000000   0.0962250   1.2739001  )
        12           Pt  tau(  12) = (   0.8333333   0.0962250   1.2739001  )
        13           Pt  tau(  13) = (   0.3333333   0.3849002   1.2739001  )
        14           Pt  tau(  14) = (   0.6666667   0.3849002   1.2739001  )
        15           Pt  tau(  15) = (   1.0000000   0.3849002   1.2739001  )
        16           Pt  tau(  16) = (   0.5000000   0.6735753   1.2739001  )
        17           Pt  tau(  17) = (   0.8333333   0.6735753   1.2739001  )
        18           Pt  tau(  18) = (   1.1666667   0.6735753   1.2739001  )
        19           Pt  tau(  19) = (  -0.0000721   0.1925087   1.5426738  )
        20           Pt  tau(  20) = (   0.3333322   0.1920572   1.5436667  )
        21           Pt  tau(  21) = (   0.6667442   0.1925045   1.5426790  )
        22           Pt  tau(  22) = (   0.1668714   0.4812960   1.5419089  )
        23           Pt  tau(  23) = (   0.4997830   0.4812823   1.5419142  )
        24           Pt  tau(  24) = (   0.8333390   0.4809722   1.5426747  )
        25           Pt  tau(  25) = (   0.3333131   0.7695248   1.5419503  )
        26           Pt  tau(  26) = (   0.6671394   0.7700883   1.5436130  )
        27           Pt  tau(  27) = (   0.9994983   0.7700984   1.5436479  )
        28           Pt  tau(  28) = (  -0.0013102   0.0001436   1.8162236  )
        29           Pt  tau(  29) = (   0.3333244  -0.0006857   1.8189831  )
        30           Pt  tau(  30) = (   0.6679313   0.0001435   1.8162766  )
        31           Pt  tau(  31) = (   0.1659189   0.2896412   1.8162136  )
        32           Pt  tau(  32) = (   0.5007335   0.2896137   1.8162552  )
        33           Pt  tau(  33) = (   0.8333202   0.2885920   1.8175802  )
        34           Pt  tau(  34) = (   0.3333325   0.5773017   1.8170901  )
        35           Pt  tau(  35) = (   0.6660055   0.5762014   1.8160053  )
        36           Pt  tau(  36) = (   1.0006477   0.5762126   1.8160265  )
        37           O   tau(  37) = (   0.3318280   0.0094375   2.1264528  )
        38           H   tau(  38) = (   0.2402535   0.0761692   2.1410033  )
        39           H   tau(  39) = (   0.4214684   0.0785745   2.1430242  )

     number of k points=    13  Marzari-Vanderbilt smearing, width (Ry)=  0.0200
                       cart. coord. in units 2pi/alat
        k(    1) = (   0.0000000   0.0000000   0.0000000), wk =   0.0800000
        k(    2) = (   0.0000000   0.2309401   0.0000000), wk =   0.1600000
        k(    3) = (   0.0000000   0.4618802   0.0000000), wk =   0.1600000
        k(    4) = (   0.2000000  -0.1154701   0.0000000), wk =   0.1600000
        k(    5) = (   0.2000000   0.1154701   0.0000000), wk =   0.1600000
        k(    6) = (   0.2000000   0.3464102   0.0000000), wk =   0.1600000
        k(    7) = (   0.2000000  -0.5773503   0.0000000), wk =   0.1600000
        k(    8) = (   0.2000000  -0.3464102   0.0000000), wk =   0.1600000
        k(    9) = (   0.4000000  -0.2309401   0.0000000), wk =   0.1600000
        k(   10) = (   0.4000000  -0.0000000   0.0000000), wk =   0.1600000
        k(   11) = (   0.4000000   0.2309401   0.0000000), wk =   0.1600000
        k(   12) = (   0.4000000  -0.6928203   0.0000000), wk =   0.1600000
        k(   13) = (   0.4000000  -0.4618802   0.0000000), wk =   0.1600000

     Initial potential from superposition of free atoms

     starting charge  367.99387, renormalised to  368.00000

     negative rho (up, down):  1.212E-02 0.000E+00

     %%%%%%%%%%%%%%%%%%%%%%%%%%%%%%%%%%%%%%%%%%%%%%%%%%%%%%%%%%%%%%%%%%%%%%%%
     %                                                                      %
     % You are using vdW-DF, which was implemented by the Thonhauser group. %
     % Please cite the following two papers that made this development      %
     % possible and the two reviews that describe the various versions:     %
     %                                                                      %
     %   T. Thonhauser et al., PRL 115, 136402 (2015).                      %
     %   T. Thonhauser et al., PRB 76, 125112 (2007).                       %
     %   K. Berland et al., Rep. Prog. Phys. 78, 066501 (2015).             %
     %   D.C. Langreth et al., J. Phys.: Condens. Matter 21, 084203 (2009). %
     %                                                                      %
     %                                                                      %
     % If you are calculating the stress with vdW-DF, please also cite:     %
     %                                                                      %
     %   R. Sabatini et al., J. Phys.: Condens. Matter 24, 424209 (2012).   %
     %                                                                      %
     %%%%%%%%%%%%%%%%%%%%%%%%%%%%%%%%%%%%%%%%%%%%%%%%%%%%%%%%%%%%%%%%%%%%%%%%

     Starting wfcs are  330 randomized atomic wfcs
     Checking if some PAW data can be deallocated...

     Self-consistent Calculation

     iteration #  1     ecut=    60.00 Ry     beta= 0.70
     Davidson diagonalization with overlap
     ethr =  1.00E-02,  avg # of iterations =  2.9

     Threshold (ethr) on eigenvalues was too large:
     Diagonalizing with lowered threshold

     Davidson diagonalization with overlap
     ethr =  4.89E-04,  avg # of iterations =  4.2

[...]

     total energy              =  -27798.97724292 Ry
     estimated scf accuracy    <       1.98324713 Ry

[...]

     iteration #  4     ecut=    60.00 Ry     beta= 0.70
     Davidson diagonalization with overlap
     c_bands:  1 eigenvalues not converged
     ethr =  3.58E-05,  avg # of iterations = 11.9

[...]

     iteration #  7     ecut=    60.00 Ry     beta= 0.70
     Davidson diagonalization with overlap
     c_bands:  2 eigenvalues not converged
     c_bands:  3 eigenvalues not converged
     c_bands:  3 eigenvalues not converged
     ethr =  7.88E-07,  avg # of iterations = 12.2

[...]

     total energy              =  -27799.24093389 Ry
     estimated scf accuracy    <       0.00000219 Ry

     iteration # 18     ecut=    60.00 Ry     beta= 0.70
     Davidson diagonalization with overlap
     ethr =  5.95E-10,  avg # of iterations =  1.2

[...]

     End of self-consistent calculation

          k = 0.0000 0.0000 0.0000 ( 88205 PWs)   bands (ev):

   -19.4409  -7.0671  -6.9131  -5.6099  -4.5349  -4.4948  -4.4934  -4.4932
    -4.4928  -4.4833  -4.4827  -4.4822  -3.9498  -3.9330  -3.9329  -3.9312
    -3.9302  -3.9301  -3.5198  -3.4646  -3.4645  -3.4608  -3.4556  -3.4553
    -3.4201  -3.2499  -3.2438  -3.2434  -3.2430  -3.2425  -3.2127  -3.0143
    -3.0138  -3.0086  -3.0071  -3.0060  -3.0033  -3.0006  -2.9967  -2.9955
    -2.9938  -2.9774  -2.9695  -2.3984  -2.3977  -2.3729  -2.3690  -2.3382
    -2.3159  -2.3140  -2.3113  -2.3104  -2.3068  -2.1790  -2.1709  -2.1056
    -2.0725  -1.8213  -1.5698  -1.5656  -1.5648  -1.5631  -1.5630  -1.5472
    -1.4968  -1.4058  -1.4056  -1.3762  -1.3760  -1.3700  -1.3664  -1.3476
    -1.3448  -1.3419  -1.3402  -1.3386  -1.3370  -1.3038  -1.3034  -1.2842
    -1.1531  -1.1511  -1.1476  -1.1462  -1.1445  -1.0981  -0.9997  -0.9905
    -0.9900  -0.9887  -0.9869  -0.9824  -0.8994  -0.8993  -0.8047  -0.8043
    -0.7476  -0.7437  -0.7316  -0.7296  -0.6929  -0.6894  -0.6849  -0.6743
    -0.5328  -0.5276  -0.5248  -0.5243  -0.5211  -0.5164  -0.4163  -0.0377
    -0.0357  -0.0319  -0.0258  -0.0253  -0.0234   0.0249   0.0405   0.0423
     0.0454   0.0473   0.0558   0.1167   0.1237   0.2722   0.2845   0.2883
     0.2886   0.2987   0.3150   0.4245   0.4250   0.4422   0.4424   0.4500
     0.4503   0.6952   0.6961   0.7037   0.7038   0.7085   0.7103   0.7814
     0.7829   0.9595   0.9598   0.9618   0.9693   0.9716   0.9904   1.1303
     1.1306   1.1393   1.1399   1.1404   1.1477   1.1700   1.1746   1.1772
     1.1819   1.1835   1.2472   1.3101   1.3221   1.3255   1.3269   1.3278
     1.3360   1.3364   1.3420   1.4167   1.4174   1.4393   1.4395   1.4402
     1.4437   1.4526   1.4534   1.5333   1.5338   1.5447   1.5491   1.5506
     1.5521   1.6274   1.6473   1.6510   1.6519   1.6610   1.6613   1.7906
     1.8691   1.8692   1.9696   1.9711   1.9814   1.9815   1.9832   1.9893
     2.7615   2.8421   2.8521   2.8623   2.8685   2.8735   3.0651   5.1405
     5.1598   5.1741   5.1880   5.2023   5.3342   5.9382   6.7033   6.7369
     6.7375   6.7865   6.7898   6.7974   6.7989

[...]

          k = 0.4000-0.4619 0.0000 ( 88078 PWs)   bands (ev):

   -19.4409  -7.0676  -5.9467  -5.9428  -5.3370  -4.6962  -4.6892  -4.1796
    -4.1732  -4.0375  -4.0037  -3.8986  -3.8920  -3.7897  -3.7837  -3.6697
    -3.6649  -3.6588  -3.6236  -3.6187  -3.6087  -3.5982  -3.5029  -3.4557
    -3.4516  -3.4279  -3.4074  -3.3793  -3.3132  -3.2203  -3.1964  -3.1354
    -3.0389  -3.0370  -3.0245  -3.0225  -3.0024  -2.8996  -2.8952  -2.7994
    -2.7966  -2.6245  -2.6126  -2.5626  -2.4621  -2.4549  -2.4099  -2.4023
    -2.3020  -2.2487  -2.2066  -2.1968  -2.1793  -2.1412  -2.1266  -2.1021
    -2.0203  -1.9945  -1.9828  -1.9638  -1.9574  -1.9559  -1.9506  -1.8847
    -1.8792  -1.7627  -1.7510  -1.7182  -1.6772  -1.6626  -1.5629  -1.5210
    -1.5183  -1.5013  -1.4651  -1.4310  -1.4292  -1.3457  -1.3276  -1.3172
    -1.3032  -1.2725  -1.2503  -1.1987  -1.1972  -1.1521  -1.0987  -1.0946
    -1.0819  -1.0543  -0.9660  -0.9178  -0.9155  -0.8775  -0.8730  -0.8288
    -0.8261  -0.8190  -0.8121  -0.7833  -0.7789  -0.7357  -0.7305  -0.6968
    -0.6828  -0.6784  -0.6760  -0.6683  -0.6566  -0.6319  -0.5671  -0.5634
    -0.5514  -0.3542  -0.3348  -0.2548  -0.2471  -0.1421  -0.1368  -0.1289
    -0.1005  -0.0490  -0.0411  -0.0353  -0.0240  -0.0034   0.0732   0.1005
     0.1031   0.1684   0.1791   0.2120   0.2524   0.2699   0.3224   0.4477
     0.5088   0.5121   0.5325   0.5362   0.6223   0.6322   0.6353   0.6561
     0.6664   0.6904   0.7122   0.7182   0.8268   0.8330   0.8524   0.8974
     0.9014   0.9210   0.9285   0.9450   0.9681   1.1062   1.1575   1.1932
     1.2619   1.2737   1.3488   1.3528   1.4338   1.4768   1.4849   1.4995
     1.5886   1.6089   1.6626   1.6937   1.7049   1.7136   1.7241   1.7532
     1.7708   1.8065   1.8715   1.8734   1.8980   1.9185   1.9232   1.9256
     1.9722   2.0003   2.1285   2.1353   2.1379   2.1407   2.1512   2.2145
     2.2982   2.3303   2.4660   3.2880   3.2893   3.4871   3.5231   3.5906
     3.6852   3.6928   3.7038   4.1327   4.2983   4.3028   4.7562   4.7737
     4.8046   4.9016   4.9030   5.1170   5.1772   5.2007   5.2508   5.6358
     5.7332   5.7463   6.0840   6.3796   6.3854

     the Fermi energy is     1.9066 ev

!    total energy              =  -27799.24093378 Ry

     total all-electron energy =  -1326794.853241 Ry
     estimated scf accuracy    <       0.00000078 Ry
     smearing contrib. (-TS)   =       0.00167201 Ry
     internal energy E=F+TS    =  -27799.24260579 Ry

     The total energy is F=E-TS. E is the sum of the following terms:
     one-electron contribution =  -26273.12294298 Ry
     hartree contribution      =   13438.93190898 Ry
     xc contribution           =    -899.23270038 Ry
     ewald contribution        =   11418.27453493 Ry
     one-center paw contrib.   =  -25484.09340634 Ry

     convergence has been achieved in  18 iterations

[...]

     Forces acting on atoms (cartesian axes, Ry/au):

     atom    1 type  1   force =    -0.00013297   -0.00024537   -0.00322863
     atom    2 type  1   force =    -0.00000778    0.00002109   -0.00387280
     atom    3 type  1   force =     0.00014903   -0.00026148   -0.00323878
     atom    4 type  1   force =     0.00021582    0.00026025   -0.00334871
     atom    5 type  1   force =    -0.00022263    0.00026243   -0.00334625
     atom    6 type  1   force =     0.00001716    0.00002972   -0.00337806
     atom    7 type  1   force =    -0.00000356   -0.00006270   -0.00568614
     atom    8 type  1   force =    -0.00023358    0.00000660   -0.00328480
     atom    9 type  1   force =     0.00024491   -0.00000357   -0.00327926
     atom   10 type  1   force =     0.00064324   -0.00034354    0.00407008
     atom   11 type  1   force =    -0.00065205   -0.00037601    0.00408726
     atom   12 type  1   force =     0.00001209    0.00044373    0.00255200
     atom   13 type  1   force =    -0.00001789   -0.00055376    0.00381722
     atom   14 type  1   force =     0.00055302   -0.00020505    0.00278064
     atom   15 type  1   force =    -0.00052871   -0.00021181    0.00277021
     atom   16 type  1   force =     0.00068438    0.00054303    0.00320493
     atom   17 type  1   force =     0.00001240    0.00065122    0.00385739
     atom   18 type  1   force =    -0.00073426    0.00055413    0.00323385
     atom   19 type  1   force =    -0.00017567    0.00003522    0.00016827
     atom   20 type  1   force =    -0.00000339   -0.00021477   -0.00050077
     atom   21 type  1   force =     0.00016196    0.00004072    0.00019293
     atom   22 type  1   force =    -0.00019718   -0.00011544    0.00031720
     atom   23 type  1   force =     0.00020398   -0.00011258    0.00031919
     atom   24 type  1   force =    -0.00001993   -0.00009911    0.00013276
     atom   25 type  1   force =     0.00000962    0.00027494    0.00040057
     atom   26 type  1   force =     0.00011227    0.00002736   -0.00032847
     atom   27 type  1   force =    -0.00011233    0.00003422   -0.00034125
     atom   28 type  1   force =     0.00015874   -0.00001078    0.00028525
     atom   29 type  1   force =     0.00005340    0.00008822    0.00073323
     atom   30 type  1   force =    -0.00015420   -0.00001976    0.00027237
     atom   31 type  1   force =    -0.00001362   -0.00027521    0.00026493
     atom   32 type  1   force =    -0.00002175   -0.00025441    0.00023699
     atom   33 type  1   force =     0.00001143   -0.00000858   -0.00000144
     atom   34 type  1   force =    -0.00000909   -0.00000712   -0.00015571
     atom   35 type  1   force =     0.00018454   -0.00001045    0.00034492
     atom   36 type  1   force =    -0.00019418   -0.00001877    0.00034299
     atom   37 type  2   force =     0.00225222    0.00249089   -0.00014326
     atom   38 type  3   force =     0.00007692   -0.00032003    0.00018484
     atom   39 type  3   force =    -0.00232238   -0.00203349   -0.00043570

     Total force =     0.004874     Total SCF correction =     0.003126
     SCF correction compared to forces is large: reduce conv_thr to get better values

[...]

     negative rho (up, down):  1.276E-02 0.000E+00

     negative rho (up, down):  1.276E-02 0.000E+00
 BEEFens 2000 ensemble energies
             -0.601112691429691E+02
             -0.358239551107908E+01
             -0.157194575887204E+02
              0.425731858845805E+02
             -0.219583403293074E+02
             -0.204113461373693E+02
             -0.348165619079165E+02
             -0.856551385236853E+02
             -0.462593446587202E+02
             -0.470136716702026E+02
             -0.366112444321146E+02
              0.221540184402795E+01
              0.401356199989780E+01
              0.770763017617554E+01
              0.261577669406483E+01
              0.470957346709987E+02
             -0.207349635972779E+02
             -0.229729907079953E+02
              0.190647368253869E+02
             -0.111474111118287E+03
              0.531538508362872E+02
             -0.288469274475250E+02
             -0.328829336622094E+01
             -0.113604769936516E+02
             -0.887985087613106E+01
             -0.459809869736125E+01
              0.875576246317685E+02
             -0.184834458985456E+02
             -0.893743507204886E+01
             -0.513400887327314E+02
              0.810266973963069E+02
             -0.187301668618419E+02
             -0.371354635068283E+02
              0.247915000698730E+02
             -0.282710128355234E+01
              0.161164157144215E+02
             -0.490326579127503E+01
              0.108515802145915E+02
              0.284712099564486E+02
             -0.102460089748722E+03
              0.553953205961686E+02
              0.141325195715069E+02
             -0.158954075303285E+01
             -0.359038053943651E+02
              0.122184590537753E+02
             -0.145244053554246E+02
              0.393857139957133E+02
              0.362030341300485E+02
             -0.306947036037958E+02
             -0.272149296694379E+02
             -0.325664959396179E+02
             -0.348978231014429E+02
              0.134191375822539E+02
             -0.486395620866974E+02
              0.114131555702347E+02
              0.617956987918784E+02
              0.628646500799889E+02
              0.353494602497582E+02
              0.152806173120335E+02
              0.267609257785307E+02
[...]
             -0.699626033959493E+02
             -0.935829615823423E+00
             -0.248461353994970E+01
             -0.872490378049804E+01
             -0.185282870731601E+01
             -0.647466528120261E+02
             -0.210262648360135E+02
              0.526306428225969E+01
              0.885789744570195E+01
              0.464459460607576E+02
             -0.393845897486939E+02
              0.653368644895462E+02
             -0.422038066767963E+02
              0.207899058998123E+02
              0.346350511383434E+02

 BEEF-vdW xc energy contributions
           1 :   -776.764342665448
           2 :    714.022382703313
           3 :   -605.296247285171
           4 :    477.154773558736
           5 :   -356.670414062061
           6 :    263.419586313426
           7 :   -205.022471978382
           8 :    177.090947760587
           9 :   -167.162798199611
          10 :    160.761964847169
          11 :   -147.121906004249
          12 :    122.416609974970
          13 :   -89.6469455790663
          14 :    55.7872571482105
          15 :   -27.8376964985526
          16 :    9.57504508408579
          17 :  -0.256366421263010
          18 :   -4.46193067160118
          19 :    10.0653880355228
          20 :   -20.4797821966923
          21 :    36.3700311200674
          22 :   -55.1147319255232
          23 :    72.3023416694999
          24 :   -83.9348829147901
          25 :    88.2552173654260
          26 :   -86.3891630409225
          27 :    81.5993177762429
          28 :   -77.6037931744464
          29 :    76.8087747314880
          30 :   -79.2893280033015
          31 :   -84.9663846402942
          32 :   -65.1912867182641

     Writing output data file ./pwscf.save/

     General routines

     Parallel routines

   This run was terminated on:   0:42:52  27Sep2022

   JOB DONE.