     Program PWSCF v.6.7MaX starts on 20Dec2022 at 15:54:30

     Reading input from hco-bi-ensemble.in
Warning: card &CELL ignored
Warning: card / ignored

     Current dimensions of program PWSCF are:
     Max number of different atomic species (ntypx) = 10
     Max number of k-points (npk) =  40000
     Max angular momentum in pseudopotentials (lmaxx) =  3
     file Pt.pbe-n-kjpaw_psl.1.0.0.UPF: wavefunction(s)  6S 5D renormalized
     file C.pbe-n-kjpaw_psl.1.0.0.UPF: wavefunction(s)  2S 2P renormalized
     file H.pbe-kjpaw_psl.1.0.0.UPF: wavefunction(s)  1S renormalized
     file O.pbe-nl-kjpaw_psl.1.0.0.UPF: wavefunction(s)  2S 2P renormalized

     IMPORTANT: XC functional enforced from input :
     Exchange-correlation= BEEF-VDW
                           (   1   4  43  14   2   0   0)
     Any further DFT definition will be discarded
     Please, verify this is what you really want

     Subspace diagonalization in iterative solution of the eigenvalue problem:
     a serial algorithm will be used

     bravais-lattice index     =            0
     lattice parameter (alat)  =      16.0349  a.u.
     unit-cell volume          =   11108.1662 (a.u.)^3
     number of atoms/cell      =           39
     number of atomic types    =            4
     number of electrons       =       371.00
     number of Kohn-Sham states=          223
     kinetic-energy cutoff     =      60.0000  Ry
     charge density cutoff     =     240.0000  Ry
     scf convergence threshold =      1.0E-06
     mixing beta               =       0.7000
     number of iterations used =            8  local-TF  mixing
     Exchange-correlation= BEEF-VDW
                           (   1   4  43  14   2   0   0)

     celldm(1)=  16.034858  celldm(2)=   0.000000  celldm(3)=   0.000000
     celldm(4)=   0.000000  celldm(5)=   0.000000  celldm(6)=   0.000000

     crystal axes: (cart. coord. in units of alat)
               a(1) = (   1.000000   0.000000   0.000000 )
               a(2) = (   0.500000   0.866025   0.000000 )
               a(3) = (   0.000000   0.000000   3.111117 )

     reciprocal axes: (cart. coord. in units 2 pi/alat)
               b(1) = (  1.000000 -0.577350  0.000000 )
               b(2) = (  0.000000  1.154701  0.000000 )
               b(3) = (  0.000000  0.000000  0.321428 )

     PseudoPot. # 1 for Pt read from file:
     /users/bkreitz1/quantum-espresso/potentials/Pt.pbe-n-kjpaw_psl.1.0.0.UPF
     MD5 check sum: 04dc8a03c51ece93fc7b5889c2958091
     Pseudo is Projector augmented-wave + core cor, Zval = 10.0
     Generated using 'atomic' code by A. Dal Corso  v.6.7MaX
     Shape of augmentation charge: PSQ
     Using radial grid of 1277 points,  6 beta functions with:
                l(1) =   0
                l(2) =   0
                l(3) =   1
                l(4) =   1
                l(5) =   2
                l(6) =   2
     Q(r) pseudized with 0 coefficients

     PseudoPot. # 2 for C  read from file:
     /users/bkreitz1/quantum-espresso/potentials/C.pbe-n-kjpaw_psl.1.0.0.UPF
     MD5 check sum: a169b0ebad56f5ec0d79c4633f80bf22
     Pseudo is Projector augmented-wave + core cor, Zval =  4.0
     Generated using 'atomic' code by A. Dal Corso  v.6.7MaX
     Shape of augmentation charge: PSQ
     Using radial grid of 1073 points,  4 beta functions with:
                l(1) =   0
                l(2) =   0
                l(3) =   1
                l(4) =   1
     Q(r) pseudized with 0 coefficients

     PseudoPot. # 3 for H  read from file:
     /users/bkreitz1/quantum-espresso/potentials/H.pbe-kjpaw_psl.1.0.0.UPF
     MD5 check sum: ae98473e6dc62675f0d0baffdab24f65
     Pseudo is Projector augmented-wave, Zval =  1.0
     Generated using 'atomic' code by A. Dal Corso  v.6.7MaX
     Shape of augmentation charge: PSQ
     Using radial grid of  929 points,  2 beta functions with:
                l(1) =   0
                l(2) =   0
     Q(r) pseudized with 0 coefficients

     PseudoPot. # 4 for O  read from file:
     /users/bkreitz1/quantum-espresso/potentials/O.pbe-nl-kjpaw_psl.1.0.0.UPF
     MD5 check sum: eef08af8b58d9ec80f8fdb78829eb7cf
     Pseudo is Projector augmented-wave + core cor, Zval =  6.0
     Generated using 'atomic' code by A. Dal Corso  v.6.7MaX
     Shape of augmentation charge: PSQ
     Using radial grid of 1095 points,  4 beta functions with:
                l(1) =   0
                l(2) =   0
                l(3) =   1
                l(4) =   1
     Q(r) pseudized with 0 coefficients

     atomic species   valence    mass     pseudopotential
        Pt            10.00   195.08400     Pt( 1.00)
        C              4.00    12.01100     C ( 1.00)
        H              1.00     1.00800     H ( 1.00)
        O              6.00    15.99900     O ( 1.00)

     No symmetry found

   Cartesian axes

     site n.     atom                  positions (alat units)
         1           Pt  tau(   1) = (   0.0000000   0.0000000   1.0017346  )
         2           Pt  tau(   2) = (   0.3333333   0.0000000   1.0017346  )
         3           Pt  tau(   3) = (   0.6666667   0.0000000   1.0017346  )
         4           Pt  tau(   4) = (   0.1666667   0.2886751   1.0017346  )
         5           Pt  tau(   5) = (   0.5000000   0.2886751   1.0017346  )
         6           Pt  tau(   6) = (   0.8333333   0.2886751   1.0017346  )
         7           Pt  tau(   7) = (   0.3333333   0.5773503   1.0017346  )
         8           Pt  tau(   8) = (   0.6666667   0.5773503   1.0017346  )
         9           Pt  tau(   9) = (   1.0000000   0.5773503   1.0017346  )
        10           Pt  tau(  10) = (   0.1666667   0.0962250   1.2739001  )
        11           Pt  tau(  11) = (   0.5000000   0.0962250   1.2739001  )
        12           Pt  tau(  12) = (   0.8333333   0.0962250   1.2739001  )
        13           Pt  tau(  13) = (   0.3333333   0.3849002   1.2739001  )
        14           Pt  tau(  14) = (   0.6666667   0.3849002   1.2739001  )
        15           Pt  tau(  15) = (   1.0000000   0.3849002   1.2739001  )
        16           Pt  tau(  16) = (   0.5000000   0.6735753   1.2739001  )
        17           Pt  tau(  17) = (   0.8333333   0.6735753   1.2739001  )
        18           Pt  tau(  18) = (   1.1666667   0.6735753   1.2739001  )
        19           Pt  tau(  19) = (  -0.0015715   0.1936263   1.5459834  )
        20           Pt  tau(  20) = (   0.3330242   0.1922712   1.5391211  )
        21           Pt  tau(  21) = (   0.6680297   0.1930929   1.5437826  )
        22           Pt  tau(  22) = (   0.1666432   0.4828873   1.5444380  )
        23           Pt  tau(  23) = (   0.5012387   0.4819826   1.5437789  )
        24           Pt  tau(  24) = (   0.8326010   0.4807061   1.5438053  )
        25           Pt  tau(  25) = (   0.3346620   0.7705678   1.5435051  )
        26           Pt  tau(  26) = (   0.6668943   0.7678627   1.5459807  )
        27           Pt  tau(  27) = (   1.0015135   0.7689130   1.5444141  )
        28           Pt  tau(  28) = (   0.0024817   0.0015040   1.8188346  )
        29           Pt  tau(  29) = (   0.3341538   0.0028501   1.8146778  )
        30           Pt  tau(  30) = (   0.6710363   0.0045959   1.8175612  )
        31           Pt  tau(  31) = (   0.1695036   0.2879889   1.8147049  )
        32           Pt  tau(  32) = (   0.4981891   0.2876454   1.8141739  )
        33           Pt  tau(  33) = (   0.8333374   0.2926446   1.8327319  )
        34           Pt  tau(  34) = (   0.3394650   0.5788688   1.8175620  )
        35           Pt  tau(  35) = (   0.6700385   0.5755515   1.8326526  )
        36           Pt  tau(  36) = (   1.0099787   0.5831012   1.8188021  )
        37           C   tau(  37) = (   0.7934634   0.4587513   2.0158890  )
        38           H   tau(  38) = (   0.7156568   0.4135953   2.1091795  )
        39           O   tau(  39) = (   0.9180866   0.5303549   2.0613855  )

     number of k points=    13  Marzari-Vanderbilt smearing, width (Ry)=  0.0200
                       cart. coord. in units 2pi/alat
        k(    1) = (   0.0000000   0.0000000   0.0000000), wk =   0.0800000
        k(    2) = (   0.0000000   0.2309401   0.0000000), wk =   0.1600000
        k(    3) = (   0.0000000   0.4618802   0.0000000), wk =   0.1600000
        k(    4) = (   0.2000000  -0.1154701   0.0000000), wk =   0.1600000
        k(    5) = (   0.2000000   0.1154701   0.0000000), wk =   0.1600000
        k(    6) = (   0.2000000   0.3464102   0.0000000), wk =   0.1600000
        k(    7) = (   0.2000000  -0.5773503   0.0000000), wk =   0.1600000
        k(    8) = (   0.2000000  -0.3464102   0.0000000), wk =   0.1600000
        k(    9) = (   0.4000000  -0.2309401   0.0000000), wk =   0.1600000
        k(   10) = (   0.4000000  -0.0000000   0.0000000), wk =   0.1600000
        k(   11) = (   0.4000000   0.2309401   0.0000000), wk =   0.1600000
        k(   12) = (   0.4000000  -0.6928203   0.0000000), wk =   0.1600000
        k(   13) = (   0.4000000  -0.4618802   0.0000000), wk =   0.1600000

     Check: negative core charge=   -0.000001

     Initial potential from superposition of free atoms

     starting charge  370.99384, renormalised to  371.00000

     negative rho (up, down):  1.205E-02 0.000E+00

     %%%%%%%%%%%%%%%%%%%%%%%%%%%%%%%%%%%%%%%%%%%%%%%%%%%%%%%%%%%%%%%%%%%%%%%%
     %                                                                      %
     % You are using vdW-DF, which was implemented by the Thonhauser group. %
     % Please cite the following two papers that made this development      %
     % possible and the two reviews that describe the various versions:     %
     %                                                                      %
     %   T. Thonhauser et al., PRL 115, 136402 (2015).                      %
     %   T. Thonhauser et al., PRB 76, 125112 (2007).                       %
     %   K. Berland et al., Rep. Prog. Phys. 78, 066501 (2015).             %
     %   D.C. Langreth et al., J. Phys.: Condens. Matter 21, 084203 (2009). %
     %                                                                      %
     %                                                                      %
     % If you are calculating the stress with vdW-DF, please also cite:     %
     %                                                                      %
     %   R. Sabatini et al., J. Phys.: Condens. Matter 24, 424209 (2012).   %
     %                                                                      %
     %%%%%%%%%%%%%%%%%%%%%%%%%%%%%%%%%%%%%%%%%%%%%%%%%%%%%%%%%%%%%%%%%%%%%%%%

     Starting wfcs are  333 randomized atomic wfcs
     Checking if some PAW data can be deallocated...

     Self-consistent Calculation

     iteration #  1     ecut=    60.00 Ry     beta= 0.70
     Davidson diagonalization with overlap
     ethr =  1.00E-02,  avg # of iterations =  2.0

     Threshold (ethr) on eigenvalues was too large:
     Diagonalizing with lowered threshold

     Davidson diagonalization with overlap
     ethr =  7.37E-04,  avg # of iterations =  3.1

[...]

     total energy              =  -27816.54693763 Ry
     estimated scf accuracy    <       2.93569982 Ry

[...]

     iteration #  7     ecut=    60.00 Ry     beta= 0.70
     Davidson diagonalization with overlap
     c_bands:  1 eigenvalues not converged
     c_bands:  1 eigenvalues not converged
     ethr =  1.83E-06,  avg # of iterations = 17.3

[...]

     iteration #  8     ecut=    60.00 Ry     beta= 0.70
     Davidson diagonalization with overlap
     c_bands:  1 eigenvalues not converged
     ethr =  4.12E-07,  avg # of iterations =  5.6

[...]

     total energy              =  -27816.95654486 Ry
     estimated scf accuracy    <       0.00000455 Ry

     iteration # 16     ecut=    60.00 Ry     beta= 0.70
     Davidson diagonalization with overlap
     ethr =  1.23E-09,  avg # of iterations =  2.2

[...]

     End of self-consistent calculation

          k = 0.0000 0.0000 0.0000 ( 87267 PWs)   bands (ev):

   -19.8743  -9.1590  -6.9086  -5.9760  -5.4171  -4.7658  -4.5445  -4.4990
    -4.4916  -4.4775  -4.4607  -4.4587  -4.4379  -4.3158  -4.1575  -3.9503
    -3.9236  -3.9104  -3.9088  -3.8769  -3.7892  -3.4755  -3.4655  -3.4631
    -3.4481  -3.3937  -3.3886  -3.2489  -3.2425  -3.2388  -3.2217  -3.1458
    -3.1451  -3.0373  -3.0246  -3.0191  -3.0145  -3.0055  -2.9821  -2.9768
    -2.9650  -2.9617  -2.9395  -2.9121  -2.8991  -2.4090  -2.4015  -2.3913
    -2.3847  -2.3552  -2.3405  -2.3287  -2.3075  -2.2963  -2.2670  -2.1598
    -2.1484  -2.0903  -2.0405  -1.6374  -1.6322  -1.6231  -1.5795  -1.5707
    -1.5595  -1.5126  -1.4469  -1.4212  -1.4065  -1.3910  -1.3823  -1.3713
    -1.3687  -1.3567  -1.3407  -1.3348  -1.3266  -1.3206  -1.2979  -1.2861
    -1.2809  -1.2731  -1.1820  -1.1788  -1.1738  -1.1596  -1.1268  -1.0478
    -1.0061  -0.9742  -0.9720  -0.9565  -0.9366  -0.9297  -0.9114  -0.8826
    -0.8358  -0.8296  -0.7826  -0.7815  -0.7426  -0.7316  -0.7188  -0.6917
    -0.6917  -0.6433  -0.5567  -0.5562  -0.5346  -0.5008  -0.4486  -0.3941
    -0.2356  -0.1803  -0.0740  -0.0545  -0.0353  -0.0320  -0.0241  -0.0145
    -0.0064   0.0199   0.0637   0.0908   0.1084   0.1209   0.1959   0.2165
     0.2310   0.2477   0.2677   0.2813   0.3595   0.3829   0.4186   0.4467
     0.4513   0.4727   0.5790   0.6420   0.6730   0.6925   0.7049   0.7077
     0.7445   0.7640   0.8517   0.8571   0.9513   0.9536   0.9702   0.9714
     1.0419   1.0607   1.0875   1.1055   1.1287   1.1325   1.1352   1.1476
     1.1627   1.1667   1.1800   1.1937   1.2014   1.2206   1.2386   1.2713
     1.2919   1.2949   1.3016   1.3428   1.3596   1.3743   1.3793   1.3947
     1.3995   1.4230   1.4288   1.4586   1.5085   1.5128   1.5208   1.5322
     1.5386   1.5590   1.5883   1.6100   1.6387   1.6440   1.6614   1.6658
     1.8103   1.8209   1.9245   1.9266   1.9420   1.9549   1.9702   1.9842
     2.0392   2.5340   2.5710   2.8063   2.8381   2.8627   2.8931   3.3043
     4.1478   4.5357   5.1388   5.1720   5.1935   5.4298   5.7955   6.1305
     6.6506   6.7535   6.7736   6.7937   6.8029   6.8035   6.8433

[...]

          k = 0.4000-0.4619 0.0000 ( 87160 PWs)   bands (ev):

   -19.8743  -9.1556  -6.0530  -5.9270  -5.7152  -5.2986  -4.8365  -4.7363
    -4.4978  -4.2393  -4.1344  -4.0370  -4.0059  -3.9569  -3.8715  -3.8300
    -3.7670  -3.7457  -3.6496  -3.6403  -3.6335  -3.5995  -3.5854  -3.5714
    -3.5084  -3.4347  -3.4283  -3.4201  -3.3828  -3.3762  -3.2997  -3.1983
    -3.1699  -3.1138  -3.0550  -3.0312  -3.0182  -2.9850  -2.9704  -2.9221
    -2.8763  -2.7905  -2.7700  -2.6041  -2.5935  -2.5517  -2.4860  -2.4511
    -2.4077  -2.3826  -2.2905  -2.2569  -2.2226  -2.1996  -2.1836  -2.1347
    -2.1134  -2.0860  -2.0133  -1.9883  -1.9813  -1.9683  -1.9438  -1.9290
    -1.9045  -1.8785  -1.8626  -1.7614  -1.7399  -1.7010  -1.6714  -1.6331
    -1.5493  -1.5236  -1.5169  -1.4703  -1.4518  -1.4466  -1.4035  -1.3855
    -1.3507  -1.3306  -1.3120  -1.2693  -1.2455  -1.2284  -1.1654  -1.1201
    -1.1069  -1.0946  -1.0846  -1.0278  -0.9686  -0.9475  -0.9172  -0.8977
    -0.8683  -0.8561  -0.8320  -0.8221  -0.7947  -0.7741  -0.7648  -0.7447
    -0.7244  -0.7015  -0.6704  -0.6643  -0.6547  -0.6439  -0.6358  -0.6108
    -0.5614  -0.5210  -0.4223  -0.3344  -0.2820  -0.2711  -0.2556  -0.1806
    -0.1619  -0.1370  -0.1142  -0.0864  -0.0710  -0.0438  -0.0232   0.0370
     0.0520   0.0779   0.1017   0.1463   0.2003   0.2336   0.2673   0.2910
     0.4037   0.4303   0.4462   0.4917   0.5087   0.5463   0.5646   0.5907
     0.6212   0.6508   0.6685   0.6890   0.7086   0.7587   0.7876   0.8027
     0.8433   0.8695   0.8890   0.9152   0.9429   0.9668   1.0337   1.0738
     1.1660   1.2177   1.2430   1.3175   1.3437   1.3748   1.4107   1.4556
     1.4746   1.5373   1.5673   1.6299   1.6534   1.6740   1.6859   1.7088
     1.7310   1.7573   1.7936   1.8400   1.8562   1.8680   1.8812   1.9005
     1.9060   1.9868   2.0519   2.0723   2.1086   2.1204   2.1355   2.1538
     2.1936   2.2966   2.3504   2.4637   3.0679   3.1951   3.2843   3.3123
     3.5544   3.6320   3.6667   3.7081   3.9763   4.1948   4.2789   4.3473
     4.4507   4.7654   4.8438   4.8801   4.9675   5.0503   5.1617   5.2544
     5.4404   5.6127   5.6802   5.7681   6.1851   6.3468   6.3900

     the Fermi energy is     1.9037 ev

!    total energy              =  -27816.95654374 Ry

     total all-electron energy =  -1326870.332953 Ry
     estimated scf accuracy    <       0.00000073 Ry
     smearing contrib. (-TS)   =       0.00148420 Ry
     internal energy E=F+TS    =  -27816.95802794 Ry

     The total energy is F=E-TS. E is the sum of the following terms:
     one-electron contribution =  -25959.36056670 Ry
     hartree contribution      =   13283.06766476 Ry
     xc contribution           =    -903.23870958 Ry
     ewald contribution        =   11253.23993132 Ry
     one-center paw contrib.   =  -25490.66634774 Ry

     convergence has been achieved in  16 iterations

[...]

     Forces acting on atoms (cartesian axes, Ry/au):

     atom    1 type  1   force =     0.00024667    0.00012194   -0.00231969
     atom    2 type  1   force =     0.00082204   -0.00060358   -0.00404778
     atom    3 type  1   force =    -0.00096530    0.00011394   -0.00325860
     atom    4 type  1   force =    -0.00009679    0.00102323   -0.00407686
     atom    5 type  1   force =     0.00101428    0.00059107   -0.00678180
     atom    6 type  1   force =    -0.00051477   -0.00000510   -0.00321639
     atom    7 type  1   force =    -0.00036873   -0.00090491   -0.00327146
     atom    8 type  1   force =    -0.00027674   -0.00043741   -0.00321896
     atom    9 type  1   force =    -0.00013018   -0.00007552   -0.00435217
     atom   10 type  1   force =    -0.00153132   -0.00088820   -0.00292762
     atom   11 type  1   force =    -0.00067336   -0.00175406    0.00054932
     atom   12 type  1   force =     0.00137578    0.00040640    0.00711149
     atom   13 type  1   force =    -0.00185816    0.00027968    0.00054024
     atom   14 type  1   force =    -0.00225270   -0.00130009    0.00465614
     atom   15 type  1   force =     0.00110883   -0.00126541    0.00532145
     atom   16 type  1   force =     0.00105366    0.00099040    0.00711045
     atom   17 type  1   force =    -0.00053735    0.00160886    0.00533642
     atom   18 type  1   force =    -0.00041444   -0.00022212    0.00538569
     atom   19 type  1   force =     0.00040975   -0.00016888   -0.00021015
     atom   20 type  1   force =     0.00021313    0.00013207    0.00047192
     atom   21 type  1   force =     0.00003789    0.00029115   -0.00034779
     atom   22 type  1   force =     0.00032784   -0.00002554    0.00013862
     atom   23 type  1   force =     0.00025156   -0.00009833   -0.00032344
     atom   24 type  1   force =     0.00004107    0.00003470    0.00073301
     atom   25 type  1   force =     0.00007805    0.00006135   -0.00043221
     atom   26 type  1   force =     0.00006532    0.00047196   -0.00022297
     atom   27 type  1   force =     0.00011696    0.00033255    0.00011244
     atom   28 type  1   force =    -0.00028717   -0.00016133    0.00004526
     atom   29 type  1   force =     0.00052171    0.00049102    0.00027004
     atom   30 type  1   force =     0.00003117   -0.00026752    0.00007522
     atom   31 type  1   force =     0.00067988    0.00024351    0.00028422
     atom   32 type  1   force =    -0.00002569    0.00002881    0.00035113
     atom   33 type  1   force =     0.00075144    0.00048256    0.00045968
     atom   34 type  1   force =    -0.00022053    0.00016358    0.00009504
     atom   35 type  1   force =     0.00075215    0.00045514    0.00043611
     atom   36 type  1   force =     0.00051325    0.00032463    0.00066135
     atom   37 type  2   force =     0.00486661    0.00231422    0.00558272
     atom   38 type  3   force =    -0.00095536   -0.00046463   -0.00096716
     atom   39 type  4   force =    -0.00417045   -0.00232014   -0.00575291

     Total force =     0.011167     Total SCF correction =     0.001027

[...]

     negative rho (up, down):  1.307E-02 0.000E+00

     negative rho (up, down):  1.307E-02 0.000E+00
 BEEFens 2000 ensemble energies
             -0.604142622910204E+02
             -0.360625774596446E+01
             -0.157920625205574E+02
              0.427712149937856E+02
             -0.220407959624570E+02
             -0.204837708671162E+02
             -0.350191833663357E+02
             -0.861048404113541E+02
             -0.464216533422238E+02
             -0.471747608599046E+02
             -0.367868183306491E+02
              0.223519515783008E+01
              0.405027687756839E+01
              0.767928875536174E+01
              0.263967478676062E+01
              0.473105889824886E+02
             -0.208212901024321E+02
             -0.230307516217679E+02
              0.191894126895702E+02
             -0.111970818230501E+03
              0.534121764218118E+02
             -0.289332817017854E+02
             -0.331678448480140E+01
             -0.113874155787709E+02
             -0.888139723503252E+01
             -0.463481396810380E+01
              0.879498599737302E+02
             -0.185838240113789E+02
             -0.898405880271264E+01
             -0.516113472966431E+02
              0.813453091109518E+02
             -0.187625032665645E+02
             -0.373353480338907E+02
              0.248837239416560E+02
             -0.283441293788297E+01
              0.162549191134250E+02
             -0.488280882286529E+01
              0.108452881794148E+02
              0.286422737088416E+02
             -0.102919798440134E+03
              0.556301207158828E+02
              0.141890989234703E+02
             -0.163634280489856E+01
             -0.360582988584111E+02
              0.122704528746685E+02
             -0.145905540243348E+02
              0.396231471132273E+02
              0.363604505418942E+02
             -0.307765804384693E+02
             -0.273806698215793E+02
             -0.327177156314798E+02
             -0.350609945860514E+02
              0.135069542833864E+02
             -0.488868276270991E+02
              0.114819866874140E+02
              0.620754658595601E+02
              0.632089269796697E+02
              0.354763588273426E+02
              0.153558655224556E+02
              0.269021312460725E+02
[...]
             -0.703078152996150E+02
             -0.936190414802695E+00
             -0.247449280017385E+01
             -0.877899354663623E+01
             -0.181975430022857E+01
             -0.650388623612749E+02
             -0.210785224407780E+02
              0.531719535681254E+01
              0.891181615498317E+01
              0.466736195275323E+02
             -0.395904075346072E+02
              0.655740104417566E+02
             -0.423812538185594E+02
              0.209056176531773E+02
              0.348412350027594E+02

 BEEF-vdW xc energy contributions
           1 :   -780.163313963178
           2 :    717.090498803323
           3 :   -607.727784087637
           4 :    478.747959835035
           5 :   -357.411600761624
           6 :    263.482288419662
           7 :   -204.683853062267
           8 :    176.619316980350
           9 :   -166.734055558908
          10 :    160.436540331046
          11 :   -146.873916173389
          12 :    122.189388435392
          13 :   -89.4075480346676
          14 :    55.5504677857602
          15 :   -27.6533428694767
          16 :    9.49108731679382
          17 :  -0.282802656312811
          18 :   -4.36147321799353
          19 :    9.95224778840986
          20 :   -20.4043035666861
          21 :    36.3425036950921
          22 :   -55.0998238633426
          23 :    72.2423220753484
          24 :   -83.7883342788718
          25 :    88.0274508566812
          26 :   -86.1342400408159
          27 :    81.3950091597777
          28 :   -77.5160243781312
          29 :    76.8619443353017
          30 :   -79.4577068154210
          31 :   -85.3998185377060
          32 :   -65.5191037053065

     Writing output data file ./pwscf.save/

     General routines

     Parallel routines

   This run was terminated on:  18:51:31  20Dec2022

   JOB DONE.