     Program PWSCF v.6.7MaX starts on 20Dec2022 at 15:53:16

     Reading input from hco-ensemble.in
Warning: card &CELL ignored
Warning: card / ignored

     Current dimensions of program PWSCF are:
     Max number of different atomic species (ntypx) = 10
     Max number of k-points (npk) =  40000
     Max angular momentum in pseudopotentials (lmaxx) =  3
     file Pt.pbe-n-kjpaw_psl.1.0.0.UPF: wavefunction(s)  6S 5D renormalized
     file C.pbe-n-kjpaw_psl.1.0.0.UPF: wavefunction(s)  2S 2P renormalized
     file H.pbe-kjpaw_psl.1.0.0.UPF: wavefunction(s)  1S renormalized
     file O.pbe-nl-kjpaw_psl.1.0.0.UPF: wavefunction(s)  2S 2P renormalized

     IMPORTANT: XC functional enforced from input :
     Exchange-correlation= BEEF-VDW
                           (   1   4  43  14   2   0   0)
     Any further DFT definition will be discarded
     Please, verify this is what you really want

     Subspace diagonalization in iterative solution of the eigenvalue problem:
     a serial algorithm will be used

     bravais-lattice index     =            0
     lattice parameter (alat)  =      16.0349  a.u.
     unit-cell volume          =   11287.6136 (a.u.)^3
     number of atoms/cell      =           39
     number of atomic types    =            4
     number of electrons       =       371.00
     number of Kohn-Sham states=          223
     kinetic-energy cutoff     =      60.0000  Ry
     charge density cutoff     =     240.0000  Ry
     scf convergence threshold =      1.0E-06
     mixing beta               =       0.7000
     number of iterations used =            8  local-TF  mixing
     Exchange-correlation= BEEF-VDW
                           (   1   4  43  14   2   0   0)

     celldm(1)=  16.034858  celldm(2)=   0.000000  celldm(3)=   0.000000
     celldm(4)=   0.000000  celldm(5)=   0.000000  celldm(6)=   0.000000

     crystal axes: (cart. coord. in units of alat)
               a(1) = (   1.000000   0.000000   0.000000 )
               a(2) = (   0.500000   0.866025   0.000000 )
               a(3) = (   0.000000   0.000000   3.161376 )

     reciprocal axes: (cart. coord. in units 2 pi/alat)
               b(1) = (  1.000000 -0.577350  0.000000 )
               b(2) = (  0.000000  1.154701  0.000000 )
               b(3) = (  0.000000  0.000000  0.316318 )

     PseudoPot. # 1 for Pt read from file:
     /users/bkreitz1/quantum-espresso/potentials/Pt.pbe-n-kjpaw_psl.1.0.0.UPF
     MD5 check sum: 04dc8a03c51ece93fc7b5889c2958091
     Pseudo is Projector augmented-wave + core cor, Zval = 10.0
     Generated using 'atomic' code by A. Dal Corso  v.6.7MaX
     Shape of augmentation charge: PSQ
     Using radial grid of 1277 points,  6 beta functions with:
                l(1) =   0
                l(2) =   0
                l(3) =   1
                l(4) =   1
                l(5) =   2
                l(6) =   2
     Q(r) pseudized with 0 coefficients

     PseudoPot. # 2 for C  read from file:
     /users/bkreitz1/quantum-espresso/potentials/C.pbe-n-kjpaw_psl.1.0.0.UPF
     MD5 check sum: a169b0ebad56f5ec0d79c4633f80bf22
     Pseudo is Projector augmented-wave + core cor, Zval =  4.0
     Generated using 'atomic' code by A. Dal Corso  v.6.7MaX
     Shape of augmentation charge: PSQ
     Using radial grid of 1073 points,  4 beta functions with:
                l(1) =   0
                l(2) =   0
                l(3) =   1
                l(4) =   1
     Q(r) pseudized with 0 coefficients

     PseudoPot. # 3 for H  read from file:
     /users/bkreitz1/quantum-espresso/potentials/H.pbe-kjpaw_psl.1.0.0.UPF
     MD5 check sum: ae98473e6dc62675f0d0baffdab24f65
     Pseudo is Projector augmented-wave, Zval =  1.0
     Generated using 'atomic' code by A. Dal Corso  v.6.7MaX
     Shape of augmentation charge: PSQ
     Using radial grid of  929 points,  2 beta functions with:
                l(1) =   0
                l(2) =   0
     Q(r) pseudized with 0 coefficients

     PseudoPot. # 4 for O  read from file:
     /users/bkreitz1/quantum-espresso/potentials/O.pbe-nl-kjpaw_psl.1.0.0.UPF
     MD5 check sum: eef08af8b58d9ec80f8fdb78829eb7cf
     Pseudo is Projector augmented-wave + core cor, Zval =  6.0
     Generated using 'atomic' code by A. Dal Corso  v.6.7MaX
     Shape of augmentation charge: PSQ
     Using radial grid of 1095 points,  4 beta functions with:
                l(1) =   0
                l(2) =   0
                l(3) =   1
                l(4) =   1
     Q(r) pseudized with 0 coefficients

     atomic species   valence    mass     pseudopotential
        Pt            10.00   195.08400     Pt( 1.00)
        C              4.00    12.01100     C ( 1.00)
        H              1.00     1.00800     H ( 1.00)
        O              6.00    15.99900     O ( 1.00)

     No symmetry found

   Cartesian axes

     site n.     atom                  positions (alat units)
         1           Pt  tau(   1) = (   0.0000000   0.0000000   1.0017346  )
         2           Pt  tau(   2) = (   0.3333333   0.0000000   1.0017346  )
         3           Pt  tau(   3) = (   0.6666667   0.0000000   1.0017346  )
         4           Pt  tau(   4) = (   0.1666667   0.2886751   1.0017346  )
         5           Pt  tau(   5) = (   0.5000000   0.2886751   1.0017346  )
         6           Pt  tau(   6) = (   0.8333333   0.2886751   1.0017346  )
         7           Pt  tau(   7) = (   0.3333333   0.5773503   1.0017346  )
         8           Pt  tau(   8) = (   0.6666667   0.5773503   1.0017346  )
         9           Pt  tau(   9) = (   1.0000000   0.5773503   1.0017346  )
        10           Pt  tau(  10) = (   0.1666667   0.0962250   1.2739001  )
        11           Pt  tau(  11) = (   0.5000000   0.0962250   1.2739001  )
        12           Pt  tau(  12) = (   0.8333333   0.0962250   1.2739001  )
        13           Pt  tau(  13) = (   0.3333333   0.3849002   1.2739001  )
        14           Pt  tau(  14) = (   0.6666667   0.3849002   1.2739001  )
        15           Pt  tau(  15) = (   1.0000000   0.3849002   1.2739001  )
        16           Pt  tau(  16) = (   0.5000000   0.6735753   1.2739001  )
        17           Pt  tau(  17) = (   0.8333333   0.6735753   1.2739001  )
        18           Pt  tau(  18) = (   1.1666667   0.6735753   1.2739001  )
        19           Pt  tau(  19) = (  -0.0000870   0.1930117   1.5417109  )
        20           Pt  tau(  20) = (   0.3355633   0.1941582   1.5476080  )
        21           Pt  tau(  21) = (   0.6644945   0.1941658   1.5473113  )
        22           Pt  tau(  22) = (   0.1667509   0.4813435   1.5425008  )
        23           Pt  tau(  23) = (   0.4999358   0.4790694   1.5469121  )
        24           Pt  tau(  24) = (   0.8330008   0.4812240   1.5424996  )
        25           Pt  tau(  25) = (   0.3333573   0.7701792   1.5411504  )
        26           Pt  tau(  26) = (   0.6666387   0.7702043   1.5413525  )
        27           Pt  tau(  27) = (   0.9998378   0.7703350   1.5425131  )
        28           Pt  tau(  28) = (  -0.0001918   0.0006134   1.8157496  )
        29           Pt  tau(  29) = (   0.3325446  -0.0000993   1.8165839  )
        30           Pt  tau(  30) = (   0.6670978  -0.0000484   1.8158607  )
        31           Pt  tau(  31) = (   0.1655708   0.2891874   1.8166703  )
        32           Pt  tau(  32) = (   0.4998080   0.2886928   1.8467960  )
        33           Pt  tau(  33) = (   0.8341731   0.2891746   1.8169651  )
        34           Pt  tau(  34) = (   0.3329453   0.5787454   1.8157114  )
        35           Pt  tau(  35) = (   0.6669211   0.5789368   1.8157364  )
        36           Pt  tau(  36) = (   0.9998081   0.5780894   1.8160571  )
        37           C   tau(  37) = (   0.4997076   0.2901925   2.0821096  )
        38           H   tau(  38) = (   0.5315129   0.1736260   2.1311020  )
        39           O   tau(  39) = (   0.4691882   0.4018203   2.1634333  )

     number of k points=    13  Marzari-Vanderbilt smearing, width (Ry)=  0.0200
                       cart. coord. in units 2pi/alat
        k(    1) = (   0.0000000   0.0000000   0.0000000), wk =   0.0800000
        k(    2) = (   0.0000000   0.2309401   0.0000000), wk =   0.1600000
        k(    3) = (   0.0000000   0.4618802   0.0000000), wk =   0.1600000
        k(    4) = (   0.2000000  -0.1154701   0.0000000), wk =   0.1600000
        k(    5) = (   0.2000000   0.1154701   0.0000000), wk =   0.1600000
        k(    6) = (   0.2000000   0.3464102   0.0000000), wk =   0.1600000
        k(    7) = (   0.2000000  -0.5773503   0.0000000), wk =   0.1600000
        k(    8) = (   0.2000000  -0.3464102   0.0000000), wk =   0.1600000
        k(    9) = (   0.4000000  -0.2309401   0.0000000), wk =   0.1600000
        k(   10) = (   0.4000000  -0.0000000   0.0000000), wk =   0.1600000
        k(   11) = (   0.4000000   0.2309401   0.0000000), wk =   0.1600000
        k(   12) = (   0.4000000  -0.6928203   0.0000000), wk =   0.1600000
        k(   13) = (   0.4000000  -0.4618802   0.0000000), wk =   0.1600000

     Check: negative core charge=   -0.000001

     Initial potential from superposition of free atoms

     starting charge  370.99384, renormalised to  371.00000

     negative rho (up, down):  1.204E-02 0.000E+00

     %%%%%%%%%%%%%%%%%%%%%%%%%%%%%%%%%%%%%%%%%%%%%%%%%%%%%%%%%%%%%%%%%%%%%%%%
     %                                                                      %
     % You are using vdW-DF, which was implemented by the Thonhauser group. %
     % Please cite the following two papers that made this development      %
     % possible and the two reviews that describe the various versions:     %
     %                                                                      %
     %   T. Thonhauser et al., PRL 115, 136402 (2015).                      %
     %   T. Thonhauser et al., PRB 76, 125112 (2007).                       %
     %   K. Berland et al., Rep. Prog. Phys. 78, 066501 (2015).             %
     %   D.C. Langreth et al., J. Phys.: Condens. Matter 21, 084203 (2009). %
     %                                                                      %
     %                                                                      %
     % If you are calculating the stress with vdW-DF, please also cite:     %
     %                                                                      %
     %   R. Sabatini et al., J. Phys.: Condens. Matter 24, 424209 (2012).   %
     %                                                                      %
     %%%%%%%%%%%%%%%%%%%%%%%%%%%%%%%%%%%%%%%%%%%%%%%%%%%%%%%%%%%%%%%%%%%%%%%%

     Starting wfcs are  333 randomized atomic wfcs
     Checking if some PAW data can be deallocated...

     Self-consistent Calculation

     iteration #  1     ecut=    60.00 Ry     beta= 0.70
     Davidson diagonalization with overlap
     ethr =  1.00E-02,  avg # of iterations =  2.0

     Threshold (ethr) on eigenvalues was too large:
     Diagonalizing with lowered threshold

     Davidson diagonalization with overlap
     ethr =  6.78E-04,  avg # of iterations =  2.9

[...]

     total energy              =  -27816.61965438 Ry
     estimated scf accuracy    <       2.71114473 Ry

[...]

     iteration #  5     ecut=    60.00 Ry     beta= 0.70
     Davidson diagonalization with overlap
     c_bands:  1 eigenvalues not converged
     ethr =  4.36E-05,  avg # of iterations =  3.7

[...]

     iteration #  8     ecut=    60.00 Ry     beta= 0.70
     Davidson diagonalization with overlap
     c_bands:  1 eigenvalues not converged
     ethr =  5.96E-07,  avg # of iterations =  8.1

[...]

     total energy              =  -27816.98063731 Ry
     estimated scf accuracy    <       0.00000138 Ry

     iteration # 18     ecut=    60.00 Ry     beta= 0.70
     Davidson diagonalization with overlap
     ethr =  3.72E-10,  avg # of iterations =  2.2

[...]

     End of self-consistent calculation

          k = 0.0000 0.0000 0.0000 ( 88721 PWs)   bands (ev):

   -20.5252  -8.8448  -7.0594  -5.7915  -5.2610  -4.7260  -4.6593  -4.6568
    -4.6557  -4.6508  -4.6401  -4.6152  -4.6095  -4.4125  -4.0954  -4.0940
    -4.0938  -4.0779  -4.0765  -4.0211  -3.7618  -3.6313  -3.6305  -3.6197
    -3.6109  -3.6086  -3.5763  -3.4080  -3.4042  -3.4013  -3.3973  -3.3942
    -3.3262  -3.1839  -3.1784  -3.1770  -3.1709  -3.1696  -3.1653  -3.1580
    -3.1557  -3.1250  -3.1157  -3.1058  -3.1016  -2.5624  -2.5619  -2.5284
    -2.5245  -2.5198  -2.4736  -2.4715  -2.4696  -2.4624  -2.4611  -2.3294
    -2.3146  -2.2455  -2.1871  -1.8298  -1.7638  -1.7550  -1.7278  -1.7262
    -1.7236  -1.6672  -1.5865  -1.5792  -1.5616  -1.5610  -1.5383  -1.5358
    -1.5285  -1.5121  -1.5103  -1.4887  -1.4841  -1.4834  -1.4541  -1.4523
    -1.4455  -1.3532  -1.3469  -1.3393  -1.3198  -1.3154  -1.2587  -1.1617
    -1.1599  -1.1577  -1.1214  -1.1164  -1.1147  -1.0883  -1.0792  -1.0290
    -1.0272  -0.9540  -0.9538  -0.8991  -0.8990  -0.8636  -0.8602  -0.8405
    -0.8166  -0.7682  -0.7396  -0.7266  -0.6875  -0.6840  -0.6816  -0.5688
    -0.2800  -0.2742  -0.2698  -0.2112  -0.1991  -0.1977  -0.1897  -0.1383
    -0.1369  -0.1308  -0.1229  -0.0884  -0.0831  -0.0368   0.0526   0.0985
     0.1007   0.1127   0.1237   0.1596   0.1869   0.2002   0.2788   0.2832
     0.2909   0.2931   0.4016   0.4715   0.4878   0.5322   0.5342   0.5366
     0.5665   0.6015   0.6026   0.7779   0.7827   0.7920   0.8063   0.8078
     0.8761   0.9386   0.9425   0.9636   0.9651   0.9670   0.9839   0.9908
     1.0039   1.0064   1.0092   1.0123   1.0920   1.0943   1.1023   1.1209
     1.1261   1.1341   1.1626   1.1886   1.2195   1.2200   1.2354   1.2388
     1.2650   1.2753   1.2786   1.2805   1.3508   1.3515   1.3735   1.3760
     1.3770   1.3994   1.4002   1.4752   1.4765   1.4767   1.5017   1.5027
     1.5645   1.6729   1.6790   1.7723   1.7744   1.8112   1.8141   1.8147
     1.8287   2.2237   2.6510   2.6563   2.6818   2.7003   2.7058   2.7344
     4.0535   4.5936   4.9585   5.0177   5.0343   5.0511   5.1438   5.9192
     6.5254   6.5786   6.6089   6.6173   6.6242   6.6463   6.6556

[...]

          k = 0.4000-0.4619 0.0000 ( 88524 PWs)   bands (ev):

   -20.5252  -8.8435  -6.1040  -6.0892  -5.5017  -5.2759  -4.8635  -4.8512
    -4.4840  -4.3294  -4.2521  -4.1870  -4.1428  -4.0437  -4.0272  -3.9432
    -3.9296  -3.8382  -3.8192  -3.8115  -3.7851  -3.7764  -3.7578  -3.7471
    -3.7017  -3.6168  -3.6014  -3.5801  -3.5487  -3.5248  -3.4768  -3.3842
    -3.3477  -3.2987  -3.2080  -3.1963  -3.1894  -3.1702  -3.1349  -3.0679
    -3.0542  -2.9636  -2.9233  -2.7711  -2.7609  -2.7128  -2.6278  -2.6174
    -2.5685  -2.5527  -2.4479  -2.4013  -2.3747  -2.3575  -2.3361  -2.2849
    -2.2829  -2.2570  -2.1649  -2.1556  -2.1310  -2.1215  -2.1102  -2.1038
    -2.1002  -2.0560  -2.0094  -1.9257  -1.8939  -1.8500  -1.8311  -1.7426
    -1.7173  -1.6950  -1.6805  -1.6507  -1.6261  -1.6107  -1.5805  -1.5045
    -1.4946  -1.4784  -1.4502  -1.4356  -1.4000  -1.3491  -1.3149  -1.2808
    -1.2673  -1.2495  -1.2367  -1.1493  -1.0932  -1.0784  -1.0590  -1.0511
    -1.0197  -1.0084  -0.9974  -0.9732  -0.9562  -0.9452  -0.9177  -0.8986
    -0.8684  -0.8612  -0.8537  -0.8381  -0.8231  -0.8177  -0.7958  -0.7644
    -0.7360  -0.7159  -0.5485  -0.5154  -0.4335  -0.4224  -0.3479  -0.3375
    -0.3205  -0.2909  -0.2678  -0.2502  -0.2134  -0.1892  -0.1674  -0.1123
    -0.0883  -0.0738  -0.0407  -0.0207   0.0463   0.0681   0.1107   0.1321
     0.2478   0.2613   0.3015   0.3375   0.3537   0.3919   0.4231   0.4389
     0.4716   0.4876   0.4979   0.5321   0.5431   0.5761   0.6266   0.6475
     0.6968   0.7153   0.7359   0.7514   0.7666   0.7815   0.8816   0.9122
     0.9917   1.0205   1.0925   1.1398   1.1815   1.1915   1.2566   1.3087
     1.3138   1.3494   1.4142   1.4609   1.4898   1.5073   1.5328   1.5389
     1.5583   1.5926   1.6102   1.6882   1.6912   1.7119   1.7252   1.7486
     1.7529   1.7721   1.8216   1.9217   1.9383   1.9641   1.9726   1.9823
     2.0350   2.0849   2.1546   2.2756   2.9691   3.1132   3.1213   3.2958
     3.3711   3.4667   3.4952   3.5096   3.7630   4.0817   4.1226   4.2770
     4.3601   4.6029   4.6557   4.7186   4.7685   4.8975   4.9935   5.0975
     5.1708   5.3532   5.5446   5.6086   5.7879   6.1930   6.2239

     the Fermi energy is     1.7369 ev

!    total energy              =  -27816.98063681 Ry

     total all-electron energy =  -1326870.357046 Ry
     estimated scf accuracy    <       0.00000048 Ry
     smearing contrib. (-TS)   =       0.00232036 Ry
     internal energy E=F+TS    =  -27816.98295717 Ry

     The total energy is F=E-TS. E is the sum of the following terms:
     one-electron contribution =  -26560.32732128 Ry
     hartree contribution      =   13581.37642071 Ry
     xc contribution           =    -903.13825844 Ry
     ewald contribution        =   11555.76063791 Ry
     one-center paw contrib.   =  -25490.65443608 Ry

     convergence has been achieved in  18 iterations

[...]

     Forces acting on atoms (cartesian axes, Ry/au):

     atom    1 type  1   force =    -0.00010287   -0.00024590   -0.00742468
     atom    2 type  1   force =    -0.00041703   -0.00007289   -0.00327711
     atom    3 type  1   force =     0.00047861   -0.00000333   -0.00331145
     atom    4 type  1   force =    -0.00034054   -0.00054987   -0.00332998
     atom    5 type  1   force =     0.00002563   -0.00011051   -0.00310858
     atom    6 type  1   force =     0.00034814   -0.00064204   -0.00343581
     atom    7 type  1   force =     0.00034420    0.00040959   -0.00332343
     atom    8 type  1   force =    -0.00026695    0.00046083   -0.00328006
     atom    9 type  1   force =    -0.00000973   -0.00007571   -0.00313264
     atom   10 type  1   force =    -0.00010139    0.00024038   -0.00040434
     atom   11 type  1   force =    -0.00014176    0.00235244    0.01037828
     atom   12 type  1   force =     0.00014551    0.00024272   -0.00042334
     atom   13 type  1   force =     0.00167687   -0.00113867    0.01014324
     atom   14 type  1   force =    -0.00176479   -0.00097149    0.01005368
     atom   15 type  1   force =    -0.00002175    0.00026707    0.00286218
     atom   16 type  1   force =     0.00020418   -0.00016346   -0.00148258
     atom   17 type  1   force =     0.00010648   -0.00001169    0.00206665
     atom   18 type  1   force =    -0.00038452   -0.00006072    0.00199256
     atom   19 type  1   force =     0.00008069    0.00007519    0.00024826
     atom   20 type  1   force =    -0.00004006   -0.00008143   -0.00041709
     atom   21 type  1   force =     0.00005330   -0.00013218   -0.00045870
     atom   22 type  1   force =    -0.00000013   -0.00006440    0.00020012
     atom   23 type  1   force =     0.00000296   -0.00005780   -0.00069076
     atom   24 type  1   force =     0.00012916    0.00002229    0.00016090
     atom   25 type  1   force =    -0.00008550   -0.00011641    0.00026106
     atom   26 type  1   force =     0.00014327   -0.00012846    0.00030707
     atom   27 type  1   force =     0.00006652   -0.00007558    0.00012479
     atom   28 type  1   force =     0.00007325   -0.00015501   -0.00015610
     atom   29 type  1   force =     0.00008388   -0.00010727    0.00007159
     atom   30 type  1   force =    -0.00003063   -0.00011822    0.00011447
     atom   31 type  1   force =    -0.00009564   -0.00022700    0.00018873
     atom   32 type  1   force =    -0.00004628    0.00039037    0.00002447
     atom   33 type  1   force =     0.00004657   -0.00018319    0.00020142
     atom   34 type  1   force =     0.00006911    0.00000150    0.00001367
     atom   35 type  1   force =    -0.00000069   -0.00010238    0.00004847
     atom   36 type  1   force =     0.00007625   -0.00015049    0.00002804
     atom   37 type  2   force =    -0.00058829    0.00200348   -0.00143744
     atom   38 type  3   force =     0.00026155   -0.00032164   -0.00041252
     atom   39 type  4   force =     0.00002243   -0.00039812    0.00001696

     Total force =     0.002951     Total SCF correction =     0.001399
     SCF correction compared to forces is large: reduce conv_thr to get better values

[...]

     negative rho (up, down):  1.292E-02 0.000E+00

     negative rho (up, down):  1.292E-02 0.000E+00
 BEEFens 2000 ensemble energies
             -0.604134784148858E+02
             -0.360266999262180E+01
             -0.157859882842817E+02
              0.427766692391849E+02
             -0.220481319243837E+02
             -0.204802839828411E+02
             -0.350296975394560E+02
             -0.861088294469198E+02
             -0.464131223534049E+02
             -0.471698711526160E+02
             -0.367839253345999E+02
              0.224513597048263E+01
              0.404195629481262E+01
              0.767741261515036E+01
              0.263920807725762E+01
              0.473090281525792E+02
             -0.208184176161919E+02
             -0.230111166419134E+02
              0.191795126048853E+02
             -0.111973948478574E+03
              0.534146102704929E+02
             -0.289293308001156E+02
             -0.331817257093870E+01
             -0.113942155035280E+02
             -0.886497258087957E+01
             -0.462232946715326E+01
              0.879500347204370E+02
             -0.185965169347780E+02
             -0.897567894366966E+01
             -0.516021444334266E+02
              0.813253606156657E+02
             -0.187487393571195E+02
             -0.373287156765020E+02
              0.248743219262596E+02
             -0.283920322246422E+01
              0.162590189585466E+02
             -0.488049967979197E+01
              0.108403467033128E+02
              0.286499930104721E+02
             -0.102907337292279E+03
              0.556396690191141E+02
              0.141874737220579E+02
             -0.165001937966900E+01
             -0.360480356529083E+02
              0.122707823416723E+02
             -0.146100357560418E+02
              0.396232900435106E+02
              0.363583447352496E+02
             -0.307708156044682E+02
             -0.273741544834662E+02
             -0.327103635064518E+02
             -0.350669368598122E+02
              0.135220717712894E+02
             -0.488784655211372E+02
              0.114892872003521E+02
              0.620761767097088E+02
              0.632166495410585E+02
              0.354851704276882E+02
              0.153527809914897E+02
              0.269130247351766E+02
[...]
             -0.703111431630797E+02
             -0.916723335545726E+00
             -0.247495311252750E+01
             -0.877642939555835E+01
             -0.183058458974426E+01
             -0.650381578389897E+02
             -0.210656243209011E+02
              0.532506458922358E+01
              0.892508745027590E+01
              0.466753511458230E+02
             -0.395847270841670E+02
              0.655643941019265E+02
             -0.423802848961864E+02
              0.209133757202506E+02
              0.348418839471018E+02

 BEEF-vdW xc energy contributions
           1 :   -780.037044719950
           2 :    716.825078487358
           3 :   -607.340028338484
           4 :    478.373250782214
           5 :   -357.176594718791
           6 :    263.430359159169
           7 :   -204.776893709059
           8 :    176.782398924986
           9 :   -166.898801458685
          10 :    160.562468255342
          11 :   -146.949593263392
          12 :    122.224107895279
          13 :   -89.4166966811371
          14 :    55.5410789932292
          15 :   -27.6236319904888
          16 :    9.43767786235355
          17 :  -0.206577838231169
          18 :   -4.45319916644041
          19 :    10.0508538106029
          20 :   -20.5062821320811
          21 :    36.4482332323252
          22 :   -55.2063487873290
          23 :    72.3376359646911
          24 :   -83.8520744108046
          25 :    88.0358598974844
          26 :   -86.0715687805485
          27 :    81.2679276721628
          28 :   -77.3570166080760
          29 :    76.7160666452332
          30 :   -79.3650061775321
          31 :   -85.3870112435370
          32 :   -65.4747766031556

     Writing output data file ./pwscf.save/

     General routines

     Parallel routines

   This run was terminated on:  19:14:33  20Dec2022

   JOB DONE.