     Program PWSCF v.6.7MaX starts on 20May2022 at 15:46:12

     Reading input from hco3-ensemble.in
Warning: card &CELL ignored
Warning: card / ignored

     Current dimensions of program PWSCF are:
     Max number of different atomic species (ntypx) = 10
     Max number of k-points (npk) =  40000
     Max angular momentum in pseudopotentials (lmaxx) =  3
     file Pt.pbe-n-kjpaw_psl.1.0.0.UPF: wavefunction(s)  6S 5D renormalized
     file O.pbe-nl-kjpaw_psl.1.0.0.UPF: wavefunction(s)  2S 2P renormalized
     file C.pbe-n-kjpaw_psl.1.0.0.UPF: wavefunction(s)  2S 2P renormalized
     file H.pbe-kjpaw_psl.1.0.0.UPF: wavefunction(s)  1S renormalized

     IMPORTANT: XC functional enforced from input :
     Exchange-correlation= BEEF-VDW
                           (   1   4  43  14   2   0   0)
     Any further DFT definition will be discarded
     Please, verify this is what you really want

     Subspace diagonalization in iterative solution of the eigenvalue problem:
     a serial algorithm will be used

     bravais-lattice index     =            0
     lattice parameter (alat)  =      16.0349  a.u.
     unit-cell volume          =   11915.3978 (a.u.)^3
     number of atoms/cell      =           41
     number of atomic types    =            4
     number of electrons       =       383.00
     number of Kohn-Sham states=          230
     kinetic-energy cutoff     =      60.0000  Ry
     charge density cutoff     =     240.0000  Ry
     scf convergence threshold =      1.0E-06
     mixing beta               =       0.7000
     number of iterations used =            8  local-TF  mixing
     Exchange-correlation= BEEF-VDW
                           (   1   4  43  14   2   0   0)

     celldm(1)=  16.034858  celldm(2)=   0.000000  celldm(3)=   0.000000
     celldm(4)=   0.000000  celldm(5)=   0.000000  celldm(6)=   0.000000

     crystal axes: (cart. coord. in units of alat)
               a(1) = (   1.000000   0.000000   0.000000 )
               a(2) = (   0.500000   0.866025   0.000000 )
               a(3) = (   0.000000   0.000000   3.337203 )

     reciprocal axes: (cart. coord. in units 2 pi/alat)
               b(1) = (  1.000000 -0.577350  0.000000 )
               b(2) = (  0.000000  1.154701  0.000000 )
               b(3) = (  0.000000  0.000000  0.299652 )

     PseudoPot. # 1 for Pt read from file:
     /users/bkreitz1/quantum-espresso/potentials/Pt.pbe-n-kjpaw_psl.1.0.0.UPF
     MD5 check sum: 04dc8a03c51ece93fc7b5889c2958091
     Pseudo is Projector augmented-wave + core cor, Zval = 10.0
     Generated using 'atomic' code by A. Dal Corso  v.6.7MaX
     Shape of augmentation charge: PSQ
     Using radial grid of 1277 points,  6 beta functions with:
                l(1) =   0
                l(2) =   0
                l(3) =   1
                l(4) =   1
                l(5) =   2
                l(6) =   2
     Q(r) pseudized with 0 coefficients

     PseudoPot. # 2 for O  read from file:
     /users/bkreitz1/quantum-espresso/potentials/O.pbe-nl-kjpaw_psl.1.0.0.UPF
     MD5 check sum: eef08af8b58d9ec80f8fdb78829eb7cf
     Pseudo is Projector augmented-wave + core cor, Zval =  6.0
     Generated using 'atomic' code by A. Dal Corso  v.6.7MaX
     Shape of augmentation charge: PSQ
     Using radial grid of 1095 points,  4 beta functions with:
                l(1) =   0
                l(2) =   0
                l(3) =   1
                l(4) =   1
     Q(r) pseudized with 0 coefficients

     PseudoPot. # 3 for C  read from file:
     /users/bkreitz1/quantum-espresso/potentials/C.pbe-n-kjpaw_psl.1.0.0.UPF
     MD5 check sum: a169b0ebad56f5ec0d79c4633f80bf22
     Pseudo is Projector augmented-wave + core cor, Zval =  4.0
     Generated using 'atomic' code by A. Dal Corso  v.6.7MaX
     Shape of augmentation charge: PSQ
     Using radial grid of 1073 points,  4 beta functions with:
                l(1) =   0
                l(2) =   0
                l(3) =   1
                l(4) =   1
     Q(r) pseudized with 0 coefficients

     PseudoPot. # 4 for H  read from file:
     /users/bkreitz1/quantum-espresso/potentials/H.pbe-kjpaw_psl.1.0.0.UPF
     MD5 check sum: ae98473e6dc62675f0d0baffdab24f65
     Pseudo is Projector augmented-wave, Zval =  1.0
     Generated using 'atomic' code by A. Dal Corso  v.6.7MaX
     Shape of augmentation charge: PSQ
     Using radial grid of  929 points,  2 beta functions with:
                l(1) =   0
                l(2) =   0
     Q(r) pseudized with 0 coefficients

     atomic species   valence    mass     pseudopotential
        Pt            10.00   195.08400     Pt( 1.00)
        O              6.00    15.99900     O ( 1.00)
        C              4.00    12.01100     C ( 1.00)
        H              1.00     1.00800     H ( 1.00)

     No symmetry found

   Cartesian axes

     site n.     atom                  positions (alat units)
         1           Pt  tau(   1) = (   0.0000000   0.0000000   1.0017346  )
         2           Pt  tau(   2) = (   0.3333333   0.0000000   1.0017346  )
         3           Pt  tau(   3) = (   0.6666667   0.0000000   1.0017346  )
         4           Pt  tau(   4) = (   0.1666667   0.2886751   1.0017346  )
         5           Pt  tau(   5) = (   0.5000000   0.2886751   1.0017346  )
         6           Pt  tau(   6) = (   0.8333333   0.2886751   1.0017346  )
         7           Pt  tau(   7) = (   0.3333333   0.5773503   1.0017346  )
         8           Pt  tau(   8) = (   0.6666667   0.5773503   1.0017346  )
         9           Pt  tau(   9) = (   1.0000000   0.5773503   1.0017346  )
        10           Pt  tau(  10) = (   0.1666667   0.0962250   1.2739001  )
        11           Pt  tau(  11) = (   0.5000000   0.0962250   1.2739001  )
        12           Pt  tau(  12) = (   0.8333333   0.0962250   1.2739001  )
        13           Pt  tau(  13) = (   0.3333333   0.3849002   1.2739001  )
        14           Pt  tau(  14) = (   0.6666667   0.3849002   1.2739001  )
        15           Pt  tau(  15) = (   1.0000000   0.3849002   1.2739001  )
        16           Pt  tau(  16) = (   0.5000000   0.6735753   1.2739001  )
        17           Pt  tau(  17) = (   0.8333333   0.6735753   1.2739001  )
        18           Pt  tau(  18) = (   1.1666667   0.6735753   1.2739001  )
        19           Pt  tau(  19) = (  -0.0026353   0.1937735   1.5462436  )
        20           Pt  tau(  20) = (   0.3319911   0.1917906   1.5394191  )
        21           Pt  tau(  21) = (   0.6676526   0.1930422   1.5441777  )
        22           Pt  tau(  22) = (   0.1674696   0.4807652   1.5405931  )
        23           Pt  tau(  23) = (   0.5009976   0.4817862   1.5441655  )
        24           Pt  tau(  24) = (   0.8333119   0.4812696   1.5435845  )
        25           Pt  tau(  25) = (   0.3333420   0.7698405   1.5422655  )
        26           Pt  tau(  26) = (   0.6663574   0.7672897   1.5458609  )
        27           Pt  tau(  27) = (   1.0000856   0.7707400   1.5406014  )
        28           Pt  tau(  28) = (  -0.0000520   0.0004177   1.8162523  )
        29           Pt  tau(  29) = (   0.3345846   0.0021225   1.8158917  )
        30           Pt  tau(  30) = (   0.6663987  -0.0011886   1.8159111  )
        31           Pt  tau(  31) = (   0.1688539   0.2889592   1.8161420  )
        32           Pt  tau(  32) = (   0.4954515   0.2862250   1.8118525  )
        33           Pt  tau(  33) = (   0.8343489   0.2886336   1.8227578  )
        34           Pt  tau(  34) = (   0.3318241   0.5779471   1.8158479  )
        35           Pt  tau(  35) = (   0.6665629   0.5791795   1.8220740  )
        36           Pt  tau(  36) = (   1.0041791   0.5799285   1.8115299  )
        37           O   tau(  37) = (   0.6798507   0.5538118   2.0753657  )
        38           C   tau(  38) = (   0.7462675   0.4361145   2.1391256  )
        39           O   tau(  39) = (   0.8145837   0.3175875   2.0760356  )
        40           O   tau(  40) = (   0.7424754   0.4378054   2.2987834  )
        41           H   tau(  41) = (   0.7948479   0.3429581   2.3366465  )

     number of k points=    13  Marzari-Vanderbilt smearing, width (Ry)=  0.0200
                       cart. coord. in units 2pi/alat
        k(    1) = (   0.0000000   0.0000000   0.0000000), wk =   0.0800000
        k(    2) = (   0.0000000   0.2309401   0.0000000), wk =   0.1600000
        k(    3) = (   0.0000000   0.4618802   0.0000000), wk =   0.1600000
        k(    4) = (   0.2000000  -0.1154701   0.0000000), wk =   0.1600000
        k(    5) = (   0.2000000   0.1154701   0.0000000), wk =   0.1600000
        k(    6) = (   0.2000000   0.3464102   0.0000000), wk =   0.1600000
        k(    7) = (   0.2000000  -0.5773503   0.0000000), wk =   0.1600000
        k(    8) = (   0.2000000  -0.3464102   0.0000000), wk =   0.1600000
        k(    9) = (   0.4000000  -0.2309401   0.0000000), wk =   0.1600000
        k(   10) = (   0.4000000  -0.0000000   0.0000000), wk =   0.1600000
        k(   11) = (   0.4000000   0.2309401   0.0000000), wk =   0.1600000
        k(   12) = (   0.4000000  -0.6928203   0.0000000), wk =   0.1600000
        k(   13) = (   0.4000000  -0.4618802   0.0000000), wk =   0.1600000

     Check: negative core charge=   -0.000002

     Initial potential from superposition of free atoms

     starting charge  382.99384, renormalised to  383.00000

     negative rho (up, down):  1.331E-02 0.000E+00

     %%%%%%%%%%%%%%%%%%%%%%%%%%%%%%%%%%%%%%%%%%%%%%%%%%%%%%%%%%%%%%%%%%%%%%%%
     %                                                                      %
     % You are using vdW-DF, which was implemented by the Thonhauser group. %
     % Please cite the following two papers that made this development      %
     % possible and the two reviews that describe the various versions:     %
     %                                                                      %
     %   T. Thonhauser et al., PRL 115, 136402 (2015).                      %
     %   T. Thonhauser et al., PRB 76, 125112 (2007).                       %
     %   K. Berland et al., Rep. Prog. Phys. 78, 066501 (2015).             %
     %   D.C. Langreth et al., J. Phys.: Condens. Matter 21, 084203 (2009). %
     %                                                                      %
     %                                                                      %
     % If you are calculating the stress with vdW-DF, please also cite:     %
     %                                                                      %
     %   R. Sabatini et al., J. Phys.: Condens. Matter 24, 424209 (2012).   %
     %                                                                      %
     %%%%%%%%%%%%%%%%%%%%%%%%%%%%%%%%%%%%%%%%%%%%%%%%%%%%%%%%%%%%%%%%%%%%%%%%

     Starting wfcs are  341 randomized atomic wfcs
     Checking if some PAW data can be deallocated...

     Self-consistent Calculation

     iteration #  1     ecut=    60.00 Ry     beta= 0.70
     Davidson diagonalization with overlap
     ethr =  1.00E-02,  avg # of iterations =  2.8

     Threshold (ethr) on eigenvalues was too large:
     Diagonalizing with lowered threshold

     Davidson diagonalization with overlap
     ethr =  6.59E-04,  avg # of iterations =  3.4

[...]

     total energy              =  -27901.60981953 Ry
     estimated scf accuracy    <       2.68436855 Ry

[...]

     iteration #  4     ecut=    60.00 Ry     beta= 0.70
     Davidson diagonalization with overlap
     c_bands:  1 eigenvalues not converged
     c_bands:  1 eigenvalues not converged
     ethr =  7.17E-05,  avg # of iterations = 11.3

[...]

     iteration # 10     ecut=    60.00 Ry     beta= 0.70
     Davidson diagonalization with overlap
     c_bands:  3 eigenvalues not converged
     ethr =  7.55E-07,  avg # of iterations =  4.6

[...]

     total energy              =  -27901.98286193 Ry
     estimated scf accuracy    <       0.00000273 Ry

     iteration # 19     ecut=    60.00 Ry     beta= 0.70
     Davidson diagonalization with overlap
     ethr =  7.13E-10,  avg # of iterations =  1.8

[...]

     End of self-consistent calculation

          k = 0.0000 0.0000 0.0000 ( 93455 PWs)   bands (ev):

   -22.2315 -19.5583 -19.1021  -9.3445  -7.3124  -6.8510  -6.1900  -5.9824
    -5.3389  -4.9438  -4.9025  -4.8918  -4.8879  -4.8750  -4.8672  -4.8638
    -4.8541  -4.3613  -4.3359  -4.3280  -4.3234  -4.3190  -4.3130  -4.0994
    -3.8753  -3.8624  -3.8605  -3.8491  -3.8457  -3.8321  -3.6528  -3.6448
    -3.6389  -3.6339  -3.6313  -3.5901  -3.4254  -3.4202  -3.4140  -3.4119
    -3.4065  -3.4042  -3.4028  -3.3915  -3.3883  -3.3856  -3.3647  -3.3464
    -2.9447  -2.8241  -2.7889  -2.7858  -2.7786  -2.7588  -2.7375  -2.7233
    -2.7113  -2.7084  -2.6257  -2.5547  -2.5342  -2.4719  -2.4322  -2.0808
    -2.0762  -2.0173  -1.9808  -1.9641  -1.9441  -1.8833  -1.8745  -1.8353
    -1.7988  -1.7981  -1.7868  -1.7823  -1.7620  -1.7611  -1.7443  -1.7295
    -1.7262  -1.7212  -1.7142  -1.6994  -1.6869  -1.6642  -1.6412  -1.5692
    -1.5575  -1.5324  -1.5309  -1.5192  -1.4792  -1.4162  -1.4030  -1.3928
    -1.3762  -1.3718  -1.3493  -1.3174  -1.3094  -1.2941  -1.2089  -1.2085
    -1.1713  -1.1280  -1.1121  -1.1059  -1.0750  -1.0675  -1.0639  -0.9366
    -0.9226  -0.9172  -0.9040  -0.8740  -0.8724  -0.7406  -0.6768  -0.4626
    -0.4498  -0.4435  -0.4428  -0.4229  -0.4153  -0.3922  -0.3499  -0.3221
    -0.3099  -0.2895  -0.2833  -0.2637  -0.2579  -0.1398  -0.1059  -0.0989
    -0.0496  -0.0383  -0.0052   0.0195   0.0506   0.0589   0.0607   0.0706
     0.0709   0.2796   0.2993   0.3057   0.3136   0.3154   0.3199   0.3782
     0.3827   0.5708   0.5711   0.5844   0.5877   0.6133   0.6223   0.7008
     0.7126   0.7436   0.7502   0.7597   0.7631   0.7825   0.7948   0.8070
     0.8125   0.8481   0.8735   0.8874   0.9062   0.9206   0.9224   0.9282
     0.9410   0.9845   0.9902   0.9995   1.0177   1.0187   1.0331   1.0399
     1.0744   1.0851   1.1230   1.1377   1.1421   1.1441   1.1601   1.1743
     1.1843   1.2494   1.2575   1.2584   1.2806   1.2829   1.3772   1.4657
     1.4910   1.5604   1.5841   1.5856   1.6007   1.6029   1.6089   1.6672
     2.4267   2.4793   2.5015   2.5035   2.5259   2.8421   3.2744   4.7910
     4.8129   4.8337   4.8468   5.1506   5.2655   5.7924   6.0875   6.3522
     6.3591   6.3960   6.3996   6.4050   6.4184   6.4221

[...]

          k = 0.4000-0.4619 0.0000 ( 93544 PWs)   bands (ev):

   -22.2315 -19.5583 -19.1022  -9.3436  -6.8719  -6.3662  -6.3218  -6.1482
    -5.7200  -5.3431  -5.0914  -5.0725  -4.5871  -4.5602  -4.4307  -4.3948
    -4.2944  -4.2826  -4.1998  -4.1750  -4.1220  -4.0659  -4.0505  -4.0371
    -4.0119  -4.0045  -3.9919  -3.9650  -3.8525  -3.8418  -3.8322  -3.7997
    -3.7848  -3.7177  -3.6228  -3.5896  -3.5351  -3.4488  -3.4392  -3.4298
    -3.4135  -3.3960  -3.3175  -3.2949  -3.2039  -3.1850  -3.0661  -3.0056
    -2.9941  -2.9139  -2.8783  -2.8325  -2.8016  -2.7584  -2.6653  -2.6270
    -2.6144  -2.5929  -2.5644  -2.5153  -2.5048  -2.4845  -2.4105  -2.3975
    -2.3747  -2.3589  -2.3529  -2.3369  -2.2877  -2.2742  -2.2667  -2.1703
    -2.1286  -2.0916  -2.0694  -1.9977  -1.9721  -1.9454  -1.9328  -1.9002
    -1.8788  -1.8503  -1.8386  -1.7995  -1.7756  -1.7461  -1.7179  -1.6841
    -1.6796  -1.6448  -1.5985  -1.5849  -1.5301  -1.5022  -1.4770  -1.4604
    -1.4359  -1.3915  -1.3425  -1.3025  -1.2977  -1.2658  -1.2509  -1.2199
    -1.2129  -1.2009  -1.1738  -1.1706  -1.1390  -1.1118  -1.1024  -1.0847
    -1.0694  -1.0599  -1.0378  -1.0298  -1.0186  -0.9947  -0.9433  -0.8984
    -0.8026  -0.7193  -0.7010  -0.6571  -0.6438  -0.5482  -0.5327  -0.5187
    -0.4806  -0.4379  -0.4312  -0.4154  -0.3936  -0.3803  -0.3151  -0.2831
    -0.2636  -0.2081  -0.1911  -0.1638  -0.1323  -0.0959  -0.0144   0.0380
     0.1106   0.1320   0.1459   0.1628   0.2226   0.2316   0.2497   0.2714
     0.2915   0.3265   0.3435   0.3594   0.4349   0.4627   0.4776   0.5066
     0.5245   0.5324   0.5575   0.5838   0.6300   0.6991   0.7999   0.8241
     0.8861   0.9225   0.9608   0.9725   1.0472   1.1013   1.1177   1.1540
     1.2424   1.2486   1.2702   1.3017   1.3176   1.3435   1.3578   1.3700
     1.4218   1.4481   1.4783   1.4878   1.5111   1.5334   1.5412   1.5935
     1.6551   1.7044   1.7196   1.7504   1.7562   1.7867   1.8044   1.8892
     1.9480   2.0645   2.1526   2.8932   2.8952   3.1585   3.2105   3.2822
     3.2936   3.3449   3.4483   3.8934   3.9139   3.9592   4.3746   4.4592
     4.4829   4.5087   4.5246   4.7362   4.8210   4.9720   5.0462   5.3282
     5.3730   5.4805   5.9162   5.9678   5.9986   6.1479

     the Fermi energy is     1.5241 ev

!    total energy              =  -27901.98286037 Ry

     total all-electron energy =  -1327173.053059 Ry
     estimated scf accuracy    <       0.00000096 Ry
     smearing contrib. (-TS)   =      -0.00195975 Ry
     internal energy E=F+TS    =  -27901.98090062 Ry

     The total energy is F=E-TS. E is the sum of the following terms:
     one-electron contribution =  -30120.20858091 Ry
     hartree contribution      =   15364.22851641 Ry
     xc contribution           =    -918.81781465 Ry
     ewald contribution        =   13283.74657039 Ry
     one-center paw contrib.   =  -25510.92959186 Ry

     convergence has been achieved in  19 iterations

[...]

     Forces acting on atoms (cartesian axes, Ry/au):

     atom    1 type  1   force =     0.00105531    0.00064802   -0.00255742
     atom    2 type  1   force =     0.00032761   -0.00043037   -0.00752966
     atom    3 type  1   force =    -0.00077236   -0.00008693   -0.00331830
     atom    4 type  1   force =    -0.00026997    0.00048851   -0.00748483
     atom    5 type  1   force =    -0.00089338   -0.00049142   -0.00264515
     atom    6 type  1   force =     0.00097476   -0.00010267   -0.00391673
     atom    7 type  1   force =    -0.00047347   -0.00059037   -0.00331658
     atom    8 type  1   force =     0.00037945    0.00088657   -0.00396285
     atom    9 type  1   force =     0.00008895    0.00006842   -0.00370627
     atom   10 type  1   force =    -0.00301424   -0.00143731    0.00776488
     atom   11 type  1   force =     0.00070025    0.00048690    0.00065045
     atom   12 type  1   force =     0.00064804    0.00160948    0.00640616
     atom   13 type  1   force =     0.00074329    0.00044570    0.00078925
     atom   14 type  1   force =     0.00025618    0.00016542    0.00673491
     atom   15 type  1   force =    -0.00037122   -0.00286306    0.00361921
     atom   16 type  1   force =     0.00156305   -0.00020090    0.00616199
     atom   17 type  1   force =    -0.00258408    0.00122286    0.00320373
     atom   18 type  1   force =     0.00073846    0.00047762    0.00032843
     atom   19 type  1   force =    -0.00003948    0.00020002    0.00024516
     atom   20 type  1   force =     0.00006050    0.00014321   -0.00004251
     atom   21 type  1   force =     0.00006691    0.00016410    0.00005718
     atom   22 type  1   force =    -0.00006394    0.00007153   -0.00011377
     atom   23 type  1   force =     0.00006583    0.00010698    0.00005060
     atom   24 type  1   force =     0.00006379    0.00011379    0.00002202
     atom   25 type  1   force =     0.00005118    0.00017298   -0.00007164
     atom   26 type  1   force =     0.00005544    0.00003776    0.00021214
     atom   27 type  1   force =    -0.00004988    0.00006996   -0.00011832
     atom   28 type  1   force =     0.00018975    0.00023873    0.00033063
     atom   29 type  1   force =    -0.00021701   -0.00005724    0.00018918
     atom   30 type  1   force =     0.00006640    0.00033267    0.00026571
     atom   31 type  1   force =    -0.00026031    0.00006040    0.00018097
     atom   32 type  1   force =     0.00018959    0.00027360    0.00024661
     atom   33 type  1   force =    -0.00008654    0.00030520    0.00044322
     atom   34 type  1   force =     0.00023852    0.00011797    0.00023519
     atom   35 type  1   force =     0.00008925   -0.00002697    0.00033849
     atom   36 type  1   force =    -0.00010163    0.00006333    0.00005787
     atom   37 type  2   force =     0.00024001   -0.00014016    0.00071561
     atom   38 type  3   force =     0.00049440   -0.00466418    0.00087381
     atom   39 type  2   force =     0.00016241    0.00011800    0.00022586
     atom   40 type  2   force =     0.00221116   -0.00340275    0.00270160
     atom   41 type  4   force =    -0.00252300    0.00540457   -0.00426679

     Total force =     0.010131     Total SCF correction =     0.002117
     SCF correction compared to forces is large: reduce conv_thr to get better values

[...]

     negative rho (up, down):  1.487E-02 0.000E+00

     negative rho (up, down):  1.487E-02 0.000E+00
 BEEFens 2000 ensemble energies
             -0.615408500613663E+02
             -0.365983700686294E+01
             -0.160415865630933E+02
              0.435542598914355E+02
             -0.224088514924932E+02
             -0.207935436554790E+02
             -0.358379027900099E+02
             -0.878130895834871E+02
             -0.471205394268769E+02
             -0.478969094216063E+02
             -0.374323236931731E+02
              0.232856531166940E+01
              0.411355502109944E+01
              0.763150740069014E+01
              0.271285764585829E+01
              0.481520618926403E+02
             -0.211972881675528E+02
             -0.232823700140694E+02
              0.195551548447515E+02
             -0.113967832056373E+03
              0.544337070019709E+02
             -0.292937255998038E+02
             -0.341850416493281E+01
             -0.115610844009975E+02
             -0.888418865162885E+01
             -0.476617732547811E+01
              0.895300792713639E+02
             -0.189466913532677E+02
             -0.916357416822484E+01
             -0.526035565167531E+02
              0.826384027775403E+02
             -0.189148991416116E+02
             -0.380678212287245E+02
              0.252642691588922E+02
             -0.288153826066468E+01
              0.166985967200937E+02
             -0.487721633835156E+01
              0.108863688514389E+02
              0.292240127447862E+02
             -0.104751322299133E+03
              0.566061544634973E+02
              0.144124365637134E+02
             -0.179939856539329E+01
             -0.366446543097067E+02
              0.124720836472642E+02
             -0.148861851038671E+02
              0.404864771057680E+02
              0.370035136215654E+02
             -0.311662412905820E+02
             -0.279359228585004E+02
             -0.332325862338092E+02
             -0.357038925361814E+02
              0.138183025081460E+02
             -0.498363910523301E+02
              0.117587360316836E+02
              0.631775242263184E+02
              0.645083877710420E+02
              0.360552253441860E+02
              0.156834355530943E+02
              0.274532566723163E+02
[...]
             -0.716324199452988E+02
             -0.897534323438094E+00
             -0.244547756336411E+01
             -0.896893245139449E+01
             -0.175654800173697E+01
             -0.662137580433449E+02
             -0.213102134842363E+02
              0.551781652690446E+01
              0.911094032755523E+01
              0.475546474736621E+02
             -0.403277071736761E+02
              0.665953580010732E+02
             -0.430841403754437E+02
              0.213565335939522E+02
              0.355992050786961E+02

 BEEF-vdW xc energy contributions
           1 :   -793.367156487750
           2 :    728.481068400368
           3 :   -616.339222102130
           4 :    484.554786874391
           5 :   -360.927718285400
           6 :    265.365411812209
           7 :   -205.519284810502
           8 :    176.844656777478
           9 :   -166.634520941431
          10 :    160.173227716060
          11 :   -146.531310980012
          12 :    121.818052761807
          13 :   -89.0385885846138
          14 :    55.1905374317632
          15 :   -27.2886885139877
          16 :    9.11140920515959
          17 :   9.462123119453736E-002
          18 :   -4.69071057939595
          19 :    10.1796479533875
          20 :   -20.4958091421825
          21 :    36.3021280463889
          22 :   -54.9693418286777
          23 :    72.0796583513220
          24 :   -83.6339363629066
          25 :    87.8785339894584
          26 :   -85.9475135781768
          27 :    81.1113161409023
          28 :   -77.0927435992471
          29 :    76.3045949266964
          30 :   -78.8374195799951
          31 :   -86.9321927234203
          32 :   -66.5223957036376

     Writing output data file ./pwscf.save/

     General routines

     Parallel routines

   This run was terminated on:  20: 9:30  20May2022

   JOB DONE.