     Program PWSCF v.6.7MaX starts on 26Sep2022 at 14:16: 8

     Reading input from hcoh-ensemble.in
Warning: card &CELL ignored
Warning: card / ignored

     Current dimensions of program PWSCF are:
     Max number of different atomic species (ntypx) = 10
     Max number of k-points (npk) =  40000
     Max angular momentum in pseudopotentials (lmaxx) =  3
     file Pt.pbe-n-kjpaw_psl.1.0.0.UPF: wavefunction(s)  6S 5D renormalized
     file C.pbe-n-kjpaw_psl.1.0.0.UPF: wavefunction(s)  2S 2P renormalized
     file H.pbe-kjpaw_psl.1.0.0.UPF: wavefunction(s)  1S renormalized
     file O.pbe-nl-kjpaw_psl.1.0.0.UPF: wavefunction(s)  2S 2P renormalized

     IMPORTANT: XC functional enforced from input :
     Exchange-correlation= BEEF-VDW
                           (   1   4  43  14   2   0   0)
     Any further DFT definition will be discarded
     Please, verify this is what you really want

     Subspace diagonalization in iterative solution of the eigenvalue problem:
     a serial algorithm will be used

     bravais-lattice index     =            0
     lattice parameter (alat)  =      16.0349  a.u.
     unit-cell volume          =   11266.6366 (a.u.)^3
     number of atoms/cell      =           40
     number of atomic types    =            4
     number of electrons       =       372.00
     number of Kohn-Sham states=          223
     kinetic-energy cutoff     =      60.0000  Ry
     charge density cutoff     =     240.0000  Ry
     scf convergence threshold =      1.0E-06
     mixing beta               =       0.7000
     number of iterations used =            8  local-TF  mixing
     Exchange-correlation= BEEF-VDW
                           (   1   4  43  14   2   0   0)

     celldm(1)=  16.034858  celldm(2)=   0.000000  celldm(3)=   0.000000
     celldm(4)=   0.000000  celldm(5)=   0.000000  celldm(6)=   0.000000

     crystal axes: (cart. coord. in units of alat)
               a(1) = (   1.000000   0.000000   0.000000 )
               a(2) = (   0.500000   0.866025   0.000000 )
               a(3) = (   0.000000   0.000000   3.155501 )

     reciprocal axes: (cart. coord. in units 2 pi/alat)
               b(1) = (  1.000000 -0.577350  0.000000 )
               b(2) = (  0.000000  1.154701  0.000000 )
               b(3) = (  0.000000  0.000000  0.316907 )

     PseudoPot. # 1 for Pt read from file:
     /users/bkreitz1/quantum-espresso/potentials/Pt.pbe-n-kjpaw_psl.1.0.0.UPF
     MD5 check sum: 04dc8a03c51ece93fc7b5889c2958091
     Pseudo is Projector augmented-wave + core cor, Zval = 10.0
     Generated using 'atomic' code by A. Dal Corso  v.6.7MaX
     Shape of augmentation charge: PSQ
     Using radial grid of 1277 points,  6 beta functions with:
                l(1) =   0
                l(2) =   0
                l(3) =   1
                l(4) =   1
                l(5) =   2
                l(6) =   2
     Q(r) pseudized with 0 coefficients

     PseudoPot. # 2 for C  read from file:
     /users/bkreitz1/quantum-espresso/potentials/C.pbe-n-kjpaw_psl.1.0.0.UPF
     MD5 check sum: a169b0ebad56f5ec0d79c4633f80bf22
     Pseudo is Projector augmented-wave + core cor, Zval =  4.0
     Generated using 'atomic' code by A. Dal Corso  v.6.7MaX
     Shape of augmentation charge: PSQ
     Using radial grid of 1073 points,  4 beta functions with:
                l(1) =   0
                l(2) =   0
                l(3) =   1
                l(4) =   1
     Q(r) pseudized with 0 coefficients

     PseudoPot. # 3 for H  read from file:
     /users/bkreitz1/quantum-espresso/potentials/H.pbe-kjpaw_psl.1.0.0.UPF
     MD5 check sum: ae98473e6dc62675f0d0baffdab24f65
     Pseudo is Projector augmented-wave, Zval =  1.0
     Generated using 'atomic' code by A. Dal Corso  v.6.7MaX
     Shape of augmentation charge: PSQ
     Using radial grid of  929 points,  2 beta functions with:
                l(1) =   0
                l(2) =   0
     Q(r) pseudized with 0 coefficients

     PseudoPot. # 4 for O  read from file:
     /users/bkreitz1/quantum-espresso/potentials/O.pbe-nl-kjpaw_psl.1.0.0.UPF
     MD5 check sum: eef08af8b58d9ec80f8fdb78829eb7cf
     Pseudo is Projector augmented-wave + core cor, Zval =  6.0
     Generated using 'atomic' code by A. Dal Corso  v.6.7MaX
     Shape of augmentation charge: PSQ
     Using radial grid of 1095 points,  4 beta functions with:
                l(1) =   0
                l(2) =   0
                l(3) =   1
                l(4) =   1
     Q(r) pseudized with 0 coefficients

     atomic species   valence    mass     pseudopotential
        Pt            10.00   195.08400     Pt( 1.00)
        C              4.00    12.01100     C ( 1.00)
        H              1.00     1.00800     H ( 1.00)
        O              6.00    15.99900     O ( 1.00)

     No symmetry found

   Cartesian axes

     site n.     atom                  positions (alat units)
         1           Pt  tau(   1) = (   0.0000000   0.0000000   1.0017346  )
         2           Pt  tau(   2) = (   0.3333333   0.0000000   1.0017346  )
         3           Pt  tau(   3) = (   0.6666667   0.0000000   1.0017346  )
         4           Pt  tau(   4) = (   0.1666667   0.2886751   1.0017346  )
         5           Pt  tau(   5) = (   0.5000000   0.2886751   1.0017346  )
         6           Pt  tau(   6) = (   0.8333333   0.2886751   1.0017346  )
         7           Pt  tau(   7) = (   0.3333333   0.5773503   1.0017346  )
         8           Pt  tau(   8) = (   0.6666667   0.5773503   1.0017346  )
         9           Pt  tau(   9) = (   1.0000000   0.5773503   1.0017346  )
        10           Pt  tau(  10) = (   0.1666667   0.0962250   1.2739001  )
        11           Pt  tau(  11) = (   0.5000000   0.0962250   1.2739001  )
        12           Pt  tau(  12) = (   0.8333333   0.0962250   1.2739001  )
        13           Pt  tau(  13) = (   0.3333333   0.3849002   1.2739001  )
        14           Pt  tau(  14) = (   0.6666667   0.3849002   1.2739001  )
        15           Pt  tau(  15) = (   1.0000000   0.3849002   1.2739001  )
        16           Pt  tau(  16) = (   0.5000000   0.6735753   1.2739001  )
        17           Pt  tau(  17) = (   0.8333333   0.6735753   1.2739001  )
        18           Pt  tau(  18) = (   1.1666667   0.6735753   1.2739001  )
        19           Pt  tau(  19) = (   0.0004230   0.1925408   1.5415744  )
        20           Pt  tau(  20) = (   0.3365787   0.1941046   1.5492580  )
        21           Pt  tau(  21) = (   0.6645886   0.1938901   1.5481928  )
        22           Pt  tau(  22) = (   0.1669693   0.4811650   1.5429427  )
        23           Pt  tau(  23) = (   0.4998138   0.4791410   1.5476400  )
        24           Pt  tau(  24) = (   0.8333003   0.4810565   1.5427640  )
        25           Pt  tau(  25) = (   0.3335884   0.7702072   1.5409743  )
        26           Pt  tau(  26) = (   0.6667922   0.7701234   1.5413103  )
        27           Pt  tau(  27) = (   1.0000522   0.7698829   1.5429005  )
        28           Pt  tau(  28) = (  -0.0005158  -0.0010312   1.8172279  )
        29           Pt  tau(  29) = (   0.3312350  -0.0036722   1.8171280  )
        30           Pt  tau(  30) = (   0.6685272  -0.0036264   1.8162874  )
        31           Pt  tau(  31) = (   0.1635866   0.2881773   1.8167504  )
        32           Pt  tau(  32) = (   0.4990315   0.2854492   1.8429499  )
        33           Pt  tau(  33) = (   0.8359347   0.2875328   1.8167694  )
        34           Pt  tau(  34) = (   0.3319860   0.5790596   1.8182819  )
        35           Pt  tau(  35) = (   0.6672246   0.5788308   1.8157979  )
        36           Pt  tau(  36) = (   0.9999512   0.5766077   1.8175014  )
        37           C   tau(  37) = (   0.5015948   0.2931968   2.0671847  )
        38           H   tau(  38) = (   0.5511924   0.1993429   2.1399926  )
        39           H   tau(  39) = (   0.4021635   0.4908943   2.0871656  )
        40           O   tau(  40) = (   0.4465816   0.4067153   2.1568162  )

     number of k points=    13  Marzari-Vanderbilt smearing, width (Ry)=  0.0200
                       cart. coord. in units 2pi/alat
        k(    1) = (   0.0000000   0.0000000   0.0000000), wk =   0.0800000
        k(    2) = (   0.0000000   0.2309401   0.0000000), wk =   0.1600000
        k(    3) = (   0.0000000   0.4618802   0.0000000), wk =   0.1600000
        k(    4) = (   0.2000000  -0.1154701   0.0000000), wk =   0.1600000
        k(    5) = (   0.2000000   0.1154701   0.0000000), wk =   0.1600000
        k(    6) = (   0.2000000   0.3464102   0.0000000), wk =   0.1600000
        k(    7) = (   0.2000000  -0.5773503   0.0000000), wk =   0.1600000
        k(    8) = (   0.2000000  -0.3464102   0.0000000), wk =   0.1600000
        k(    9) = (   0.4000000  -0.2309401   0.0000000), wk =   0.1600000
        k(   10) = (   0.4000000  -0.0000000   0.0000000), wk =   0.1600000
        k(   11) = (   0.4000000   0.2309401   0.0000000), wk =   0.1600000
        k(   12) = (   0.4000000  -0.6928203   0.0000000), wk =   0.1600000
        k(   13) = (   0.4000000  -0.4618802   0.0000000), wk =   0.1600000

     Check: negative core charge=   -0.000001

     Initial potential from superposition of free atoms

     starting charge  371.99383, renormalised to  372.00000

     negative rho (up, down):  1.225E-02 0.000E+00

     %%%%%%%%%%%%%%%%%%%%%%%%%%%%%%%%%%%%%%%%%%%%%%%%%%%%%%%%%%%%%%%%%%%%%%%%
     %                                                                      %
     % You are using vdW-DF, which was implemented by the Thonhauser group. %
     % Please cite the following two papers that made this development      %
     % possible and the two reviews that describe the various versions:     %
     %                                                                      %
     %   T. Thonhauser et al., PRL 115, 136402 (2015).                      %
     %   T. Thonhauser et al., PRB 76, 125112 (2007).                       %
     %   K. Berland et al., Rep. Prog. Phys. 78, 066501 (2015).             %
     %   D.C. Langreth et al., J. Phys.: Condens. Matter 21, 084203 (2009). %
     %                                                                      %
     %                                                                      %
     % If you are calculating the stress with vdW-DF, please also cite:     %
     %                                                                      %
     %   R. Sabatini et al., J. Phys.: Condens. Matter 24, 424209 (2012).   %
     %                                                                      %
     %%%%%%%%%%%%%%%%%%%%%%%%%%%%%%%%%%%%%%%%%%%%%%%%%%%%%%%%%%%%%%%%%%%%%%%%

     Starting wfcs are  334 randomized atomic wfcs
     Checking if some PAW data can be deallocated...

     Self-consistent Calculation

     iteration #  1     ecut=    60.00 Ry     beta= 0.70
     Davidson diagonalization with overlap
     ethr =  1.00E-02,  avg # of iterations =  2.0

     Threshold (ethr) on eigenvalues was too large:
     Diagonalizing with lowered threshold

     Davidson diagonalization with overlap
     ethr =  5.62E-04,  avg # of iterations =  4.0

[...]

     total energy              =  -27817.84499473 Ry
     estimated scf accuracy    <       2.31735929 Ry

[...]

     iteration #  4     ecut=    60.00 Ry     beta= 0.70
     Davidson diagonalization with overlap
     c_bands:  1 eigenvalues not converged
     c_bands:  1 eigenvalues not converged
     c_bands:  1 eigenvalues not converged
     ethr =  6.94E-05,  avg # of iterations = 14.8

[...]

     iteration # 10     ecut=    60.00 Ry     beta= 0.70
     Davidson diagonalization with overlap
     c_bands:  1 eigenvalues not converged
     c_bands:  2 eigenvalues not converged
     ethr =  2.87E-07,  avg # of iterations =  5.5

[...]

     total energy              =  -27818.19227815 Ry
     estimated scf accuracy    <       0.00000223 Ry

     iteration # 20     ecut=    60.00 Ry     beta= 0.70
     Davidson diagonalization with overlap
     ethr =  5.98E-10,  avg # of iterations =  1.0

[...]

     End of self-consistent calculation

          k = 0.0000 0.0000 0.0000 ( 88553 PWs)   bands (ev):

   -21.7022 -11.0136  -7.2968  -6.7464  -6.0047  -5.4843  -4.4656  -4.4311
    -4.3914  -4.3804  -4.3750  -4.3719  -4.3446  -4.3391  -4.3158  -3.8559
    -3.8246  -3.8233  -3.8127  -3.8104  -3.8051  -3.4049  -3.3746  -3.3653
    -3.3550  -3.3513  -3.3400  -3.2697  -3.1381  -3.1364  -3.1319  -3.1294
    -3.1232  -3.0586  -2.9287  -2.9223  -2.9155  -2.9140  -2.9115  -2.8855
    -2.8809  -2.8765  -2.8720  -2.8659  -2.8163  -2.7421  -2.3460  -2.3118
    -2.2769  -2.2738  -2.2493  -2.2410  -2.2196  -2.2157  -2.2137  -2.1733
    -2.0530  -2.0325  -1.9737  -1.8404  -1.6472  -1.5439  -1.5036  -1.4862
    -1.4821  -1.4585  -1.3897  -1.3564  -1.3351  -1.2888  -1.2882  -1.2730
    -1.2718  -1.2557  -1.2550  -1.2514  -1.2178  -1.2175  -1.2111  -1.1833
    -1.1806  -1.1588  -1.1049  -1.0906  -1.0574  -1.0563  -1.0485  -0.9223
    -0.9131  -0.8901  -0.8849  -0.8770  -0.8668  -0.8574  -0.8379  -0.8320
    -0.7739  -0.7718  -0.7421  -0.7014  -0.6967  -0.6519  -0.6290  -0.6282
    -0.5885  -0.5871  -0.5163  -0.5006  -0.4620  -0.4330  -0.4315  -0.4238
    -0.1667  -0.0782  -0.0471  -0.0007   0.0471   0.0591   0.0686   0.0749
     0.0802   0.1130   0.1140   0.1179   0.1281   0.2018   0.2336   0.3173
     0.3236   0.3443   0.3523   0.3653   0.4194   0.4359   0.4470   0.5521
     0.5533   0.5629   0.5644   0.7126   0.7237   0.8034   0.8054   0.8082
     0.8379   0.8698   0.8805   1.0123   1.0259   1.0513   1.0613   1.0770
     1.1162   1.1542   1.1600   1.2143   1.2228   1.2372   1.2427   1.2474
     1.2599   1.2621   1.2654   1.2855   1.3144   1.3263   1.3433   1.3513
     1.3568   1.3831   1.4324   1.4597   1.4697   1.4700   1.4983   1.5008
     1.5286   1.5428   1.5529   1.5549   1.5628   1.6204   1.6210   1.6391
     1.6495   1.6515   1.6689   1.6893   1.7350   1.7425   1.7448   1.7725
     1.7736   1.9357   1.9380   2.0361   2.0382   2.0758   2.0766   2.0776
     2.0975   2.2791   2.7989   2.8092   2.8801   2.9312   2.9419   2.9526
     3.6920   4.0804   5.0639   5.2111   5.2273   5.2607   5.3001   6.0061
     6.2926   6.8132   6.8440   6.8719   6.8822   6.8946   6.9168

[...]

          k = 0.4000-0.4619 0.0000 ( 88388 PWs)   bands (ev):

   -21.7022 -11.0137  -7.2681  -6.0112  -5.8296  -5.7821  -5.2033  -4.6034
    -4.5673  -4.4092  -4.0727  -4.0473  -3.9118  -3.8788  -3.7820  -3.7630
    -3.6656  -3.6508  -3.6227  -3.5701  -3.5470  -3.5198  -3.4977  -3.4925
    -3.4738  -3.3897  -3.3368  -3.3256  -3.3004  -3.2800  -3.2374  -3.1550
    -3.1121  -3.0532  -3.0243  -2.9587  -2.9364  -2.9184  -2.9092  -2.8631
    -2.8224  -2.7987  -2.6891  -2.6264  -2.5021  -2.4935  -2.4650  -2.4065
    -2.3425  -2.3102  -2.2887  -2.1793  -2.1397  -2.1188  -2.0906  -2.0654
    -2.0116  -1.9943  -1.9770  -1.9338  -1.9037  -1.8860  -1.8781  -1.8394
    -1.8381  -1.8131  -1.7812  -1.7494  -1.6782  -1.6380  -1.5858  -1.5784
    -1.5060  -1.4633  -1.4289  -1.4191  -1.4029  -1.3559  -1.3349  -1.3046
    -1.2880  -1.2588  -1.2373  -1.1972  -1.1626  -1.1378  -1.1037  -1.0854
    -1.0352  -1.0155  -0.9973  -0.9525  -0.9107  -0.8515  -0.8295  -0.8118
    -0.7891  -0.7791  -0.7479  -0.7392  -0.7101  -0.6981  -0.6820  -0.6565
    -0.6540  -0.6340  -0.5970  -0.5785  -0.5675  -0.5559  -0.5382  -0.5248
    -0.5183  -0.4765  -0.4189  -0.3397  -0.2631  -0.1888  -0.1717  -0.1396
    -0.0680  -0.0570  -0.0398  -0.0016   0.0150   0.0551   0.0715   0.0966
     0.1370   0.1568   0.1939   0.2158   0.2326   0.3129   0.3230   0.3650
     0.4025   0.4854   0.5265   0.5599   0.5967   0.6304   0.6508   0.6829
     0.7237   0.7356   0.7538   0.7797   0.7826   0.8237   0.8756   0.8915
     0.9411   0.9725   0.9864   0.9978   1.0235   1.0372   1.1121   1.1644
     1.2321   1.2752   1.3415   1.3832   1.4387   1.4547   1.5051   1.5545
     1.5699   1.6046   1.6664   1.7149   1.7446   1.7692   1.7923   1.8018
     1.8071   1.8460   1.8707   1.9440   1.9506   1.9534   1.9842   2.0045
     2.0119   2.0229   2.0875   2.1726   2.1968   2.2253   2.2373   2.2454
     2.2903   2.3133   2.4125   2.5097   2.9439   3.2090   3.3818   3.3995
     3.4700   3.6455   3.7353   3.7551   3.8824   3.9752   4.3566   4.4163
     4.4440   4.8187   4.8408   4.9656   4.9945   5.0512   5.1794   5.2570
     5.2968   5.5114   5.7368   5.8110   5.9541   6.2806   6.4730

     the Fermi energy is     2.0083 ev

!    total energy              =  -27818.19227783 Ry

     total all-electron energy =  -1326871.568682 Ry
     estimated scf accuracy    <       0.00000069 Ry
     smearing contrib. (-TS)   =       0.00187939 Ry
     internal energy E=F+TS    =  -27818.19415723 Ry

     The total energy is F=E-TS. E is the sum of the following terms:
     one-electron contribution =  -26510.96556082 Ry
     hartree contribution      =   13559.88150052 Ry
     xc contribution           =    -903.92986588 Ry
     ewald contribution        =   11527.48125093 Ry
     one-center paw contrib.   =  -25490.66148198 Ry

     convergence has been achieved in  20 iterations

[...]

     Forces acting on atoms (cartesian axes, Ry/au):

     atom    1 type  1   force =    -0.00033716   -0.00067452   -0.00924812
     atom    2 type  1   force =    -0.00078283    0.00005526   -0.00321916
     atom    3 type  1   force =     0.00078535    0.00006473   -0.00347412
     atom    4 type  1   force =    -0.00035681   -0.00073625   -0.00311262
     atom    5 type  1   force =    -0.00005122    0.00004119   -0.00348591
     atom    6 type  1   force =     0.00031085   -0.00079521   -0.00305963
     atom    7 type  1   force =     0.00052511    0.00086785   -0.00340330
     atom    8 type  1   force =    -0.00048742    0.00088853   -0.00342717
     atom    9 type  1   force =     0.00005014    0.00009674   -0.00333242
     atom   10 type  1   force =     0.00013034    0.00056870    0.00051559
     atom   11 type  1   force =    -0.00008221    0.00288958    0.01105580
     atom   12 type  1   force =     0.00034424    0.00098092   -0.00210273
     atom   13 type  1   force =     0.00195475   -0.00182495    0.01090565
     atom   14 type  1   force =    -0.00211718   -0.00130006    0.00966684
     atom   15 type  1   force =    -0.00002366    0.00004705    0.00134875
     atom   16 type  1   force =     0.00033682    0.00049424   -0.00085094
     atom   17 type  1   force =     0.00034266    0.00008421    0.00195299
     atom   18 type  1   force =    -0.00043072    0.00006735    0.00250547
     atom   19 type  1   force =     0.00000193   -0.00005238    0.00001294
     atom   20 type  1   force =    -0.00004194   -0.00010399    0.00044458
     atom   21 type  1   force =     0.00023290   -0.00013011    0.00021930
     atom   22 type  1   force =     0.00009638   -0.00018277    0.00011190
     atom   23 type  1   force =     0.00001724    0.00014585   -0.00002743
     atom   24 type  1   force =    -0.00008881   -0.00019143    0.00001572
     atom   25 type  1   force =    -0.00004570   -0.00011510    0.00005722
     atom   26 type  1   force =     0.00011002   -0.00019466    0.00008779
     atom   27 type  1   force =    -0.00002468   -0.00014318   -0.00006296
     atom   28 type  1   force =     0.00022252   -0.00012317   -0.00036236
     atom   29 type  1   force =     0.00042178    0.00008976    0.00047239
     atom   30 type  1   force =    -0.00041697    0.00029666    0.00037832
     atom   31 type  1   force =    -0.00000189   -0.00025183    0.00040538
     atom   32 type  1   force =    -0.00018733    0.00009296    0.00051055
     atom   33 type  1   force =    -0.00025795   -0.00019716    0.00048955
     atom   34 type  1   force =     0.00009053   -0.00016209    0.00089348
     atom   35 type  1   force =     0.00009268   -0.00033243    0.00023875
     atom   36 type  1   force =     0.00013872   -0.00022151    0.00021613
     atom   37 type  2   force =    -0.00245696    0.00582675    0.00522373
     atom   38 type  3   force =    -0.00007785   -0.00049110   -0.00115675
     atom   39 type  3   force =     0.00247573   -0.00527764    0.00701086
     atom   40 type  4   force =    -0.00041139   -0.00009677   -0.01441406

     Total force =     0.019066     Total SCF correction =     0.001300

[...]

     negative rho (up, down):  1.310E-02 0.000E+00

     negative rho (up, down):  1.310E-02 0.000E+00
 BEEFens 2000 ensemble energies
             -0.604768764209198E+02
             -0.360462898263953E+01
             -0.158004798805315E+02
              0.428078539336574E+02
             -0.220587192613381E+02
             -0.204953205976063E+02
             -0.350691202992102E+02
             -0.861953853825000E+02
             -0.464403323707775E+02
             -0.471905333307839E+02
             -0.368151007966887E+02
              0.224676697414559E+01
              0.405418780650822E+01
              0.767063502414646E+01
              0.264327459781146E+01
              0.473468141115993E+02
             -0.208354896133692E+02
             -0.230226680061900E+02
              0.192102273436554E+02
             -0.112065725912887E+03
              0.534631761946227E+02
             -0.289384856586486E+02
             -0.332003554828337E+01
             -0.113923063066075E+02
             -0.886544181341151E+01
             -0.463055153124097E+01
              0.880243439700005E+02
             -0.186057070019585E+02
             -0.898647602610617E+01
             -0.516606044056569E+02
              0.813852532641347E+02
             -0.187543214808799E+02
             -0.373694137903076E+02
              0.248890336239224E+02
             -0.283448897336831E+01
              0.162917500730249E+02
             -0.487272784147297E+01
              0.108311391115207E+02
              0.286907007494436E+02
             -0.102993689647432E+03
              0.556805124137132E+02
              0.141967313116200E+02
             -0.165363713577045E+01
             -0.360773040862185E+02
              0.122787049719393E+02
             -0.146099819881813E+02
              0.396717605476186E+02
              0.363854819179675E+02
             -0.307815481599191E+02
             -0.274079823882930E+02
             -0.327408871977012E+02
             -0.350970672397154E+02
              0.135458877063024E+02
             -0.489285958109549E+02
              0.115002542597813E+02
              0.621311000709317E+02
              0.632828610452554E+02
              0.355025206260009E+02
              0.153688324445745E+02
              0.269408007316840E+02
[...]
             -0.703761467919533E+02
             -0.922278605718702E+00
             -0.247298713370723E+01
             -0.878654571249672E+01
             -0.181851872967218E+01
             -0.650904538858377E+02
             -0.210711568700161E+02
              0.534113407929608E+01
              0.893527513919187E+01
              0.467183680306837E+02
             -0.396241404456871E+02
              0.656070808990404E+02
             -0.424103208455633E+02
              0.209349336213090E+02
              0.348823517122015E+02

 BEEF-vdW xc energy contributions
           1 :   -780.702425540411
           2 :    717.455776658538
           3 :   -607.867765956005
           4 :    478.717315239679
           5 :   -357.294569043317
           6 :    263.346439015810
           7 :   -204.566588635752
           8 :    176.532935719060
           9 :   -166.676265790076
          10 :    160.396831340881
          11 :   -146.837554115062
          12 :    122.140212191011
          13 :   -89.3293948673358
          14 :    55.4315373478131
          15 :   -27.4968344267769
          16 :    9.32002514540989
          17 :  -0.131242072731084
          18 :   -4.46487571073339
          19 :    10.0003358577649
          20 :   -20.4168673632906
          21 :    36.3546376077494
          22 :   -55.1409993093963
          23 :    72.3165784019855
          24 :   -83.8660368053971
          25 :    88.0583629429444
          26 :   -86.0775030265678
          27 :    81.2442790453291
          28 :   -77.3068757726184
          29 :    76.6628604065343
          30 :   -79.3494087413684
          31 :   -85.4908269789451
          32 :   -65.5594816083593

     Writing output data file ./pwscf.save/

     General routines

     Parallel routines

   This run was terminated on:  17:50: 6  26Sep2022

   JOB DONE.