     Program PWSCF v.6.7MaX starts on 20May2022 at 15:53:23

     Reading input from hcooh-ensemble.in
Warning: card &CELL ignored
Warning: card / ignored

     Current dimensions of program PWSCF are:
     Max number of different atomic species (ntypx) = 10
     Max number of k-points (npk) =  40000
     Max angular momentum in pseudopotentials (lmaxx) =  3
     file Pt.pbe-n-kjpaw_psl.1.0.0.UPF: wavefunction(s)  6S 5D renormalized
     file O.pbe-nl-kjpaw_psl.1.0.0.UPF: wavefunction(s)  2S 2P renormalized
     file C.pbe-n-kjpaw_psl.1.0.0.UPF: wavefunction(s)  2S 2P renormalized
     file H.pbe-kjpaw_psl.1.0.0.UPF: wavefunction(s)  1S renormalized

     IMPORTANT: XC functional enforced from input :
     Exchange-correlation= BEEF-VDW
                           (   1   4  43  14   2   0   0)
     Any further DFT definition will be discarded
     Please, verify this is what you really want

     Subspace diagonalization in iterative solution of the eigenvalue problem:
     a serial algorithm will be used

     bravais-lattice index     =            0
     lattice parameter (alat)  =      16.0349  a.u.
     unit-cell volume          =   12213.2798 (a.u.)^3
     number of atoms/cell      =           41
     number of atomic types    =            4
     number of electrons       =       378.00
     number of Kohn-Sham states=          227
     kinetic-energy cutoff     =      60.0000  Ry
     charge density cutoff     =     240.0000  Ry
     scf convergence threshold =      1.0E-06
     mixing beta               =       0.7000
     number of iterations used =            8  local-TF  mixing
     Exchange-correlation= BEEF-VDW
                           (   1   4  43  14   2   0   0)

     celldm(1)=  16.034858  celldm(2)=   0.000000  celldm(3)=   0.000000
     celldm(4)=   0.000000  celldm(5)=   0.000000  celldm(6)=   0.000000

     crystal axes: (cart. coord. in units of alat)
               a(1) = (   1.000000   0.000000   0.000000 )
               a(2) = (   0.500000   0.866025   0.000000 )
               a(3) = (   0.000000   0.000000   3.420632 )

     reciprocal axes: (cart. coord. in units 2 pi/alat)
               b(1) = (  1.000000 -0.577350  0.000000 )
               b(2) = (  0.000000  1.154701  0.000000 )
               b(3) = (  0.000000  0.000000  0.292344 )

     PseudoPot. # 1 for Pt read from file:
     /users/bkreitz1/quantum-espresso/potentials/Pt.pbe-n-kjpaw_psl.1.0.0.UPF
     MD5 check sum: 04dc8a03c51ece93fc7b5889c2958091
     Pseudo is Projector augmented-wave + core cor, Zval = 10.0
     Generated using 'atomic' code by A. Dal Corso  v.6.7MaX
     Shape of augmentation charge: PSQ
     Using radial grid of 1277 points,  6 beta functions with:
                l(1) =   0
                l(2) =   0
                l(3) =   1
                l(4) =   1
                l(5) =   2
                l(6) =   2
     Q(r) pseudized with 0 coefficients

     PseudoPot. # 2 for O  read from file:
     /users/bkreitz1/quantum-espresso/potentials/O.pbe-nl-kjpaw_psl.1.0.0.UPF
     MD5 check sum: eef08af8b58d9ec80f8fdb78829eb7cf
     Pseudo is Projector augmented-wave + core cor, Zval =  6.0
     Generated using 'atomic' code by A. Dal Corso  v.6.7MaX
     Shape of augmentation charge: PSQ
     Using radial grid of 1095 points,  4 beta functions with:
                l(1) =   0
                l(2) =   0
                l(3) =   1
                l(4) =   1
     Q(r) pseudized with 0 coefficients

     PseudoPot. # 3 for C  read from file:
     /users/bkreitz1/quantum-espresso/potentials/C.pbe-n-kjpaw_psl.1.0.0.UPF
     MD5 check sum: a169b0ebad56f5ec0d79c4633f80bf22
     Pseudo is Projector augmented-wave + core cor, Zval =  4.0
     Generated using 'atomic' code by A. Dal Corso  v.6.7MaX
     Shape of augmentation charge: PSQ
     Using radial grid of 1073 points,  4 beta functions with:
                l(1) =   0
                l(2) =   0
                l(3) =   1
                l(4) =   1
     Q(r) pseudized with 0 coefficients

     PseudoPot. # 4 for H  read from file:
     /users/bkreitz1/quantum-espresso/potentials/H.pbe-kjpaw_psl.1.0.0.UPF
     MD5 check sum: ae98473e6dc62675f0d0baffdab24f65
     Pseudo is Projector augmented-wave, Zval =  1.0
     Generated using 'atomic' code by A. Dal Corso  v.6.7MaX
     Shape of augmentation charge: PSQ
     Using radial grid of  929 points,  2 beta functions with:
                l(1) =   0
                l(2) =   0
     Q(r) pseudized with 0 coefficients

     atomic species   valence    mass     pseudopotential
        Pt            10.00   195.08400     Pt( 1.00)
        O              6.00    15.99900     O ( 1.00)
        C              4.00    12.01100     C ( 1.00)
        H              1.00     1.00800     H ( 1.00)

     No symmetry found

   Cartesian axes

     site n.     atom                  positions (alat units)
         1           Pt  tau(   1) = (   0.0000000   0.0000000   1.0017346  )
         2           Pt  tau(   2) = (   0.3333333   0.0000000   1.0017346  )
         3           Pt  tau(   3) = (   0.6666667   0.0000000   1.0017346  )
         4           Pt  tau(   4) = (   0.1666667   0.2886751   1.0017346  )
         5           Pt  tau(   5) = (   0.5000000   0.2886751   1.0017346  )
         6           Pt  tau(   6) = (   0.8333333   0.2886751   1.0017346  )
         7           Pt  tau(   7) = (   0.3333333   0.5773503   1.0017346  )
         8           Pt  tau(   8) = (   0.6666667   0.5773503   1.0017346  )
         9           Pt  tau(   9) = (   1.0000000   0.5773503   1.0017346  )
        10           Pt  tau(  10) = (   0.1666667   0.0962250   1.2739001  )
        11           Pt  tau(  11) = (   0.5000000   0.0962250   1.2739001  )
        12           Pt  tau(  12) = (   0.8333333   0.0962250   1.2739001  )
        13           Pt  tau(  13) = (   0.3333333   0.3849002   1.2739001  )
        14           Pt  tau(  14) = (   0.6666667   0.3849002   1.2739001  )
        15           Pt  tau(  15) = (   1.0000000   0.3849002   1.2739001  )
        16           Pt  tau(  16) = (   0.5000000   0.6735753   1.2739001  )
        17           Pt  tau(  17) = (   0.8333333   0.6735753   1.2739001  )
        18           Pt  tau(  18) = (   1.1666667   0.6735753   1.2739001  )
        19           Pt  tau(  19) = (  -0.0001949   0.1924386   1.5424586  )
        20           Pt  tau(  20) = (   0.3330559   0.1924812   1.5426523  )
        21           Pt  tau(  21) = (   0.6662304   0.1924929   1.5424408  )
        22           Pt  tau(  22) = (   0.1664248   0.4811756   1.5426849  )
        23           Pt  tau(  23) = (   0.4996928   0.4811395   1.5426914  )
        24           Pt  tau(  24) = (   0.8330845   0.4812825   1.5424479  )
        25           Pt  tau(  25) = (   0.3331222   0.7698254   1.5425872  )
        26           Pt  tau(  26) = (   0.6664078   0.7699497   1.5425019  )
        27           Pt  tau(  27) = (   0.9996543   0.7698562   1.5425686  )
        28           Pt  tau(  28) = (  -0.0006057   0.0000104   1.8167492  )
        29           Pt  tau(  29) = (   0.3326581   0.0000562   1.8167618  )
        30           Pt  tau(  30) = (   0.6659688  -0.0001334   1.8163909  )
        31           Pt  tau(  31) = (   0.1660024   0.2888897   1.8167043  )
        32           Pt  tau(  32) = (   0.4990600   0.2888877   1.8165847  )
        33           Pt  tau(  33) = (   0.8328514   0.2888518   1.8153784  )
        34           Pt  tau(  34) = (   0.3325540   0.5775640   1.8168404  )
        35           Pt  tau(  35) = (   0.6659901   0.5777166   1.8163705  )
        36           Pt  tau(  36) = (   0.9994508   0.5776054   1.8167171  )
        37           O   tau(  37) = (   0.5025574   0.2893653   2.2308881  )
        38           C   tau(  38) = (   0.6313488   0.2885471   2.2906342  )
        39           O   tau(  39) = (   0.7656993   0.2906215   2.2031163  )
        40           H   tau(  40) = (   0.6524611   0.2860541   2.4188972  )
        41           H   tau(  41) = (   0.8580598   0.2893259   2.2717547  )

     number of k points=    13  Marzari-Vanderbilt smearing, width (Ry)=  0.0200
                       cart. coord. in units 2pi/alat
        k(    1) = (   0.0000000   0.0000000   0.0000000), wk =   0.0800000
        k(    2) = (   0.0000000   0.2309401   0.0000000), wk =   0.1600000
        k(    3) = (   0.0000000   0.4618802   0.0000000), wk =   0.1600000
        k(    4) = (   0.2000000  -0.1154701   0.0000000), wk =   0.1600000
        k(    5) = (   0.2000000   0.1154701   0.0000000), wk =   0.1600000
        k(    6) = (   0.2000000   0.3464102   0.0000000), wk =   0.1600000
        k(    7) = (   0.2000000  -0.5773503   0.0000000), wk =   0.1600000
        k(    8) = (   0.2000000  -0.3464102   0.0000000), wk =   0.1600000
        k(    9) = (   0.4000000  -0.2309401   0.0000000), wk =   0.1600000
        k(   10) = (   0.4000000  -0.0000000   0.0000000), wk =   0.1600000
        k(   11) = (   0.4000000   0.2309401   0.0000000), wk =   0.1600000
        k(   12) = (   0.4000000  -0.6928203   0.0000000), wk =   0.1600000
        k(   13) = (   0.4000000  -0.4618802   0.0000000), wk =   0.1600000

     Check: negative core charge=   -0.000002

     Initial potential from superposition of free atoms

     starting charge  377.99383, renormalised to  378.00000

     negative rho (up, down):  1.222E-02 0.000E+00

     %%%%%%%%%%%%%%%%%%%%%%%%%%%%%%%%%%%%%%%%%%%%%%%%%%%%%%%%%%%%%%%%%%%%%%%%
     %                                                                      %
     % You are using vdW-DF, which was implemented by the Thonhauser group. %
     % Please cite the following two papers that made this development      %
     % possible and the two reviews that describe the various versions:     %
     %                                                                      %
     %   T. Thonhauser et al., PRL 115, 136402 (2015).                      %
     %   T. Thonhauser et al., PRB 76, 125112 (2007).                       %
     %   K. Berland et al., Rep. Prog. Phys. 78, 066501 (2015).             %
     %   D.C. Langreth et al., J. Phys.: Condens. Matter 21, 084203 (2009). %
     %                                                                      %
     %                                                                      %
     % If you are calculating the stress with vdW-DF, please also cite:     %
     %                                                                      %
     %   R. Sabatini et al., J. Phys.: Condens. Matter 24, 424209 (2012).   %
     %                                                                      %
     %%%%%%%%%%%%%%%%%%%%%%%%%%%%%%%%%%%%%%%%%%%%%%%%%%%%%%%%%%%%%%%%%%%%%%%%

     Starting wfcs are  338 randomized atomic wfcs
     Checking if some PAW data can be deallocated...

     Self-consistent Calculation

     iteration #  1     ecut=    60.00 Ry     beta= 0.70
     Davidson diagonalization with overlap
     ethr =  1.00E-02,  avg # of iterations =  3.3

     Threshold (ethr) on eigenvalues was too large:
     Diagonalizing with lowered threshold

     Davidson diagonalization with overlap
     ethr =  5.43E-04,  avg # of iterations =  4.3

[...]

     total energy              =  -27860.42211474 Ry
     estimated scf accuracy    <       2.23755157 Ry

[...]

     iteration #  4     ecut=    60.00 Ry     beta= 0.70
     Davidson diagonalization with overlap
     c_bands:  1 eigenvalues not converged
     c_bands:  1 eigenvalues not converged
     c_bands:  1 eigenvalues not converged
     c_bands:  2 eigenvalues not converged
     c_bands:  1 eigenvalues not converged
     c_bands:  1 eigenvalues not converged
     ethr =  5.10E-05,  avg # of iterations = 16.2

[...]

     iteration # 22     ecut=    60.00 Ry     beta= 0.70
     Davidson diagonalization with overlap
     ethr =  8.20E-10,  avg # of iterations =  4.5

[...]

     total energy              =  -27860.69328273 Ry
     estimated scf accuracy    <       0.00000166 Ry

     iteration # 23     ecut=    60.00 Ry     beta= 0.70
     Davidson diagonalization with overlap
     c_bands:  1 eigenvalues not converged
     ethr =  4.40E-10,  avg # of iterations =  3.4

[...]

     End of self-consistent calculation

          k = 0.0000 0.0000 0.0000 ( 95835 PWs)   bands (ev):

   -21.7226 -19.7744  -9.7013  -8.1364  -7.2309  -5.9198  -4.8536  -4.8439
    -4.8105  -4.8092  -4.8085  -4.8073  -4.8064  -4.8038  -4.7958  -4.6727
    -4.2518  -4.2510  -4.2502  -4.2495  -4.2493  -4.2489  -3.7787  -3.7767
    -3.7762  -3.7750  -3.7747  -3.7744  -3.5871  -3.5601  -3.5595  -3.5592
    -3.5586  -3.5583  -3.4891  -3.3336  -3.3334  -3.3273  -3.3266  -3.3131
    -3.3120  -3.3119  -3.3115  -3.3111  -3.3084  -3.2965  -3.2949  -2.7158
    -2.7155  -2.6834  -2.6830  -2.6274  -2.6270  -2.6258  -2.6256  -2.6250
    -2.6235  -2.4887  -2.4883  -2.3869  -2.3856  -1.8832  -1.8792  -1.8790
    -1.8775  -1.8770  -1.8746  -1.8130  -1.7969  -1.7244  -1.7243  -1.6927
    -1.6925  -1.6797  -1.6790  -1.6653  -1.6597  -1.6591  -1.6580  -1.6576
    -1.6567  -1.6559  -1.6227  -1.6222  -1.4662  -1.4654  -1.4633  -1.4629
    -1.4619  -1.4601  -1.3134  -1.3125  -1.3107  -1.3091  -1.3080  -1.3063
    -1.2120  -1.2116  -1.1135  -1.1130  -1.0502  -1.0501  -1.0392  -1.0380
    -1.0038  -1.0035  -0.9894  -0.9877  -0.8821  -0.8399  -0.8383  -0.8377
    -0.8360  -0.8358  -0.8313  -0.5928  -0.3459  -0.3449  -0.3426  -0.3413
    -0.3411  -0.3405  -0.2702  -0.2692  -0.2676  -0.2665  -0.2653  -0.2617
    -0.1961  -0.1952  -0.0260  -0.0241  -0.0233  -0.0210  -0.0167  -0.0085
     0.1196   0.1198   0.1208   0.1269   0.1314   0.1315   0.3869   0.3872
     0.3880   0.3896   0.3902   0.3903   0.4673   0.4692   0.6483   0.6495
     0.6509   0.6520   0.6532   0.6579   0.8203   0.8209   0.8214   0.8230
     0.8235   0.8243   0.8634   0.8655   0.8662   0.8674   0.8751   0.8838
     0.9991   0.9999   1.0180   1.0185   1.0191   1.0195   1.0206   1.0207
     1.1227   1.1234   1.1260   1.1270   1.1279   1.1283   1.1321   1.1327
     1.2266   1.2272   1.2293   1.2297   1.2313   1.2317   1.3320   1.3331
     1.3390   1.3397   1.3412   1.3419   1.4401   1.5554   1.5599   1.6650
     1.6655   1.6660   1.6664   1.6672   1.6682   2.4946   2.5469   2.5499
     2.5532   2.5559   2.5768   2.6217   4.7292   4.8529   4.8724   4.8812
     4.8898   4.9152   4.9313   5.0070   5.9888   6.4227   6.4236   6.4756
     6.4785   6.4798   6.4814

[...]

          k = 0.4000-0.4619 0.0000 ( 95844 PWs)   bands (ev):

   -21.7226 -19.7744  -9.7010  -8.1363  -6.2634  -6.2625  -5.6549  -5.0060
    -5.0022  -4.8452  -4.6733  -4.4922  -4.4862  -4.3564  -4.3225  -4.2131
    -4.2120  -4.1058  -4.1047  -3.9816  -3.9799  -3.9770  -3.9409  -3.9389
    -3.9118  -3.9067  -3.7838  -3.7721  -3.7707  -3.7287  -3.7275  -3.6266
    -3.5380  -3.5228  -3.5097  -3.4393  -3.3559  -3.3549  -3.3382  -3.3368
    -3.3200  -3.2078  -3.2057  -3.1134  -3.1120  -2.9401  -2.9306  -2.8714
    -2.7711  -2.7703  -2.7196  -2.7192  -2.6119  -2.5617  -2.5130  -2.5118
    -2.4904  -2.4459  -2.4436  -2.4157  -2.3100  -2.3091  -2.2794  -2.2784
    -2.2707  -2.2704  -2.2692  -2.1976  -2.1947  -2.0657  -2.0416  -1.9934
    -1.9909  -1.8751  -1.8381  -1.8342  -1.8332  -1.8002  -1.7847  -1.7470
    -1.7462  -1.6573  -1.6322  -1.6298  -1.6249  -1.5933  -1.5598  -1.5128
    -1.5089  -1.4712  -1.4113  -1.4090  -1.3930  -1.3917  -1.2832  -1.2346
    -1.2327  -1.1873  -1.1857  -1.1466  -1.1458  -1.1288  -1.1260  -1.0992
    -1.0972  -1.0482  -1.0464  -1.0095  -0.9996  -0.9974  -0.9952  -0.9937
    -0.9776  -0.9443  -0.8784  -0.8775  -0.8755  -0.7115  -0.6663  -0.6345
    -0.5652  -0.5640  -0.4583  -0.4449  -0.4440  -0.4134  -0.3571  -0.3541
    -0.3521  -0.3302  -0.3192  -0.2407  -0.2121  -0.2104  -0.1414  -0.1246
    -0.1058  -0.0610  -0.0426  -0.0038   0.1355   0.1990   0.2001   0.2213
     0.2218   0.3141   0.3204   0.3217   0.3423   0.3540   0.3721   0.3992
     0.4000   0.5178   0.5203   0.5305   0.5860   0.5882   0.6091   0.6172
     0.6307   0.6387   0.7954   0.8432   0.8717   0.9510   0.9582   1.0359
     1.0371   1.1219   1.1643   1.1705   1.1720   1.2773   1.2782   1.3496
     1.3796   1.3902   1.4003   1.4005   1.4446   1.4509   1.4818   1.5580
     1.5589   1.5807   1.6098   1.6113   1.6148   1.6290   1.6753   1.8163
     1.8236   1.8244   1.8251   1.8266   1.8997   1.9709   2.0139   2.1538
     2.9732   2.9734   3.1986   3.2239   3.2636   3.3771   3.3787   3.3849
     3.8304   3.9852   3.9858   4.4459   4.4711   4.4759   4.5860   4.5910
     4.7589   4.8103   4.8705   4.8913   5.0076   5.3166   5.3698   5.4272
     5.4314   5.9273   6.0666

     the Fermi energy is     1.5898 ev

!    total energy              =  -27860.69328197 Ry

     total all-electron energy =  -1327022.916581 Ry
     estimated scf accuracy    <       0.00000070 Ry
     smearing contrib. (-TS)   =       0.00235597 Ry
     internal energy E=F+TS    =  -27860.69563794 Ry

     The total energy is F=E-TS. E is the sum of the following terms:
     one-electron contribution =  -30948.26169199 Ry
     hartree contribution      =   15776.47649097 Ry
     xc contribution           =    -911.68499065 Ry
     ewald contribution        =   13723.55436257 Ry
     one-center paw contrib.   =  -25500.77980884 Ry

     convergence has been achieved in  23 iterations

[...]

     Forces acting on atoms (cartesian axes, Ry/au):

     atom    1 type  1   force =     0.00014083    0.00005908   -0.00369622
     atom    2 type  1   force =    -0.00013740    0.00004597   -0.00355535
     atom    3 type  1   force =     0.00011538   -0.00001966   -0.00331142
     atom    4 type  1   force =     0.00004364   -0.00014378   -0.00329278
     atom    5 type  1   force =     0.00000676   -0.00002450   -0.00336685
     atom    6 type  1   force =     0.00008183   -0.00008577   -0.00342973
     atom    7 type  1   force =     0.00003159   -0.00000376   -0.00332511
     atom    8 type  1   force =     0.00003286    0.00003011   -0.00337078
     atom    9 type  1   force =     0.00007771   -0.00003721   -0.00332767
     atom   10 type  1   force =     0.00001082    0.00018727    0.00377260
     atom   11 type  1   force =    -0.00021939    0.00002098    0.00294398
     atom   12 type  1   force =    -0.00018533   -0.00001384    0.00316593
     atom   13 type  1   force =    -0.00011884    0.00002308    0.00308329
     atom   14 type  1   force =    -0.00020278   -0.00003675    0.00275072
     atom   15 type  1   force =     0.00006140    0.00012622    0.00284674
     atom   16 type  1   force =    -0.00021114   -0.00016937    0.00343171
     atom   17 type  1   force =     0.00004051    0.00001199    0.00316630
     atom   18 type  1   force =    -0.00010525   -0.00014070    0.00305956
     atom   19 type  1   force =     0.00001543    0.00002326    0.00035463
     atom   20 type  1   force =    -0.00002401    0.00000991    0.00027912
     atom   21 type  1   force =    -0.00002135    0.00000363    0.00025240
     atom   22 type  1   force =    -0.00003338   -0.00005280    0.00039365
     atom   23 type  1   force =     0.00000097   -0.00002682    0.00029705
     atom   24 type  1   force =     0.00001168   -0.00001681    0.00030090
     atom   25 type  1   force =     0.00000667    0.00001429    0.00037402
     atom   26 type  1   force =     0.00000746    0.00001707    0.00035271
     atom   27 type  1   force =    -0.00003029   -0.00000930    0.00035819
     atom   28 type  1   force =     0.00004219    0.00002213    0.00016492
     atom   29 type  1   force =     0.00001704   -0.00002862    0.00001271
     atom   30 type  1   force =     0.00004050   -0.00001039   -0.00002367
     atom   31 type  1   force =     0.00002903   -0.00003926    0.00009281
     atom   32 type  1   force =     0.00003533   -0.00004814    0.00019375
     atom   33 type  1   force =     0.00009802   -0.00001889    0.00009615
     atom   34 type  1   force =     0.00007233   -0.00001749    0.00001022
     atom   35 type  1   force =     0.00003966   -0.00003311    0.00005171
     atom   36 type  1   force =    -0.00000631   -0.00005688    0.00014490
     atom   37 type  2   force =     0.00024232    0.00000387    0.00049843
     atom   38 type  3   force =    -0.00077506    0.00038673   -0.00209594
     atom   39 type  2   force =     0.00884837   -0.00012103    0.00818044
     atom   40 type  4   force =     0.00002855    0.00001806   -0.00023386
     atom   41 type  4   force =    -0.00810834    0.00015124   -0.00760018

     Total force =     0.016595     Total SCF correction =     0.002703
     SCF correction compared to forces is large: reduce conv_thr to get better values

[...]

     negative rho (up, down):  1.371E-02 0.000E+00

     negative rho (up, down):  1.371E-02 0.000E+00
 BEEFens 2000 ensemble energies
             -0.610235044837174E+02
             -0.362381013777906E+01
             -0.159189912585142E+02
              0.432085621772140E+02
             -0.222579102437971E+02
             -0.206521420004639E+02
             -0.354958632515078E+02
             -0.870490928912429E+02
             -0.468059133351676E+02
             -0.475785731844929E+02
             -0.371239723760773E+02
              0.229831276814481E+01
              0.406144195795611E+01
              0.765537055616923E+01
              0.267930627180078E+01
              0.477671510522994E+02
             -0.210381352568367E+02
             -0.231522798705109E+02
              0.193579238582536E+02
             -0.113078075202711E+03
              0.539724644847838E+02
             -0.291193763045779E+02
             -0.337859097439161E+01
             -0.115005492727618E+02
             -0.885881775658004E+01
             -0.469987121719080E+01
              0.888279886042822E+02
             -0.187816326785737E+02
             -0.908219135902164E+01
             -0.521341356668002E+02
              0.820402218744491E+02
             -0.188324432235211E+02
             -0.377274469688906E+02
              0.250868037760049E+02
             -0.286911545500584E+01
              0.164868332435831E+02
             -0.488576862651240E+01
              0.108752454660780E+02
              0.289491743408751E+02
             -0.103926208453255E+03
              0.561839992257992E+02
              0.143071917967117E+02
             -0.173989630582685E+01
             -0.363670693875945E+02
              0.123788533874958E+02
             -0.147786437154278E+02
              0.400923661937567E+02
              0.367166594307691E+02
             -0.309884733709139E+02
             -0.276629267015142E+02
             -0.329732536585988E+02
             -0.354194437257187E+02
              0.136834962428798E+02
             -0.494069001563726E+02
              0.116472480764013E+02
              0.626811644547023E+02
              0.639238440814293E+02
              0.358165061398607E+02
              0.155465655622375E+02
              0.272138893562958E+02
[...]
             -0.710352451199744E+02
             -0.889103887833471E+00
             -0.244943012150943E+01
             -0.888060710515731E+01
             -0.180119456370926E+01
             -0.656877811414935E+02
             -0.211947552126906E+02
              0.543831025192717E+01
              0.902978880909251E+01
              0.471569532679985E+02
             -0.399782399671265E+02
              0.661402984682358E+02
             -0.427657683714357E+02
              0.211625390224521E+02
              0.352549573289112E+02

 BEEF-vdW xc energy contributions
           1 :   -787.217212722559
           2 :    722.875948169485
           3 :   -611.783201492960
           4 :    481.367290679486
           5 :   -359.114252365312
           6 :    264.642667776358
           7 :   -205.469153525942
           8 :    177.081955758286
           9 :   -166.909431088432
          10 :    160.387389912883
          11 :   -146.694821998597
          12 :    121.984459970400
          13 :   -89.2509021603790
          14 :    55.4549424678503
          15 :   -27.5749791175243
          16 :    9.37239381564802
          17 :  -0.104321225412491
          18 :   -4.56385700680437
          19 :    10.1130198661314
          20 :   -20.4728918792508
          21 :    36.3163652811448
          22 :   -55.0275752044074
          23 :    72.1943007674598
          24 :   -83.8141217519886
          25 :    88.1252781389436
          26 :   -86.2488956028212
          27 :    81.4458111346427
          28 :   -77.4404772977167
          29 :    76.6493794058365
          30 :   -79.1572112126628
          31 :   -86.2466002123662
          32 :   -66.0148420499330

     Writing output data file ./pwscf.save/

     General routines

     Parallel routines

   This run was terminated on:  20:31: 6  20May2022

   JOB DONE.