     Program PWSCF v.6.7MaX starts on 20May2022 at 15:51:12

     Reading input from hcoo-ensemble.in
Warning: card &CELL ignored
Warning: card / ignored

     Current dimensions of program PWSCF are:
     Max number of different atomic species (ntypx) = 10
     Max number of k-points (npk) =  40000
     Max angular momentum in pseudopotentials (lmaxx) =  3
     file Pt.pbe-n-kjpaw_psl.1.0.0.UPF: wavefunction(s)  6S 5D renormalized
     file C.pbe-n-kjpaw_psl.1.0.0.UPF: wavefunction(s)  2S 2P renormalized
     file H.pbe-kjpaw_psl.1.0.0.UPF: wavefunction(s)  1S renormalized
     file O.pbe-nl-kjpaw_psl.1.0.0.UPF: wavefunction(s)  2S 2P renormalized

     IMPORTANT: XC functional enforced from input :
     Exchange-correlation= BEEF-VDW
                           (   1   4  43  14   2   0   0)
     Any further DFT definition will be discarded
     Please, verify this is what you really want

     Subspace diagonalization in iterative solution of the eigenvalue problem:
     a serial algorithm will be used

     bravais-lattice index     =            0
     lattice parameter (alat)  =      16.0349  a.u.
     unit-cell volume          =   11675.2758 (a.u.)^3
     number of atoms/cell      =           40
     number of atomic types    =            4
     number of electrons       =       377.00
     number of Kohn-Sham states=          227
     kinetic-energy cutoff     =      60.0000  Ry
     charge density cutoff     =     240.0000  Ry
     scf convergence threshold =      1.0E-06
     mixing beta               =       0.7000
     number of iterations used =            8  local-TF  mixing
     Exchange-correlation= BEEF-VDW
                           (   1   4  43  14   2   0   0)

     celldm(1)=  16.034858  celldm(2)=   0.000000  celldm(3)=   0.000000
     celldm(4)=   0.000000  celldm(5)=   0.000000  celldm(6)=   0.000000

     crystal axes: (cart. coord. in units of alat)
               a(1) = (   1.000000   0.000000   0.000000 )
               a(2) = (   0.500000   0.866025   0.000000 )
               a(3) = (   0.000000   0.000000   3.269950 )

     reciprocal axes: (cart. coord. in units 2 pi/alat)
               b(1) = (  1.000000 -0.577350  0.000000 )
               b(2) = (  0.000000  1.154701  0.000000 )
               b(3) = (  0.000000  0.000000  0.305815 )

     PseudoPot. # 1 for Pt read from file:
     /users/bkreitz1/quantum-espresso/potentials/Pt.pbe-n-kjpaw_psl.1.0.0.UPF
     MD5 check sum: 04dc8a03c51ece93fc7b5889c2958091
     Pseudo is Projector augmented-wave + core cor, Zval = 10.0
     Generated using 'atomic' code by A. Dal Corso  v.6.7MaX
     Shape of augmentation charge: PSQ
     Using radial grid of 1277 points,  6 beta functions with:
                l(1) =   0
                l(2) =   0
                l(3) =   1
                l(4) =   1
                l(5) =   2
                l(6) =   2
     Q(r) pseudized with 0 coefficients

     PseudoPot. # 2 for C  read from file:
     /users/bkreitz1/quantum-espresso/potentials/C.pbe-n-kjpaw_psl.1.0.0.UPF
     MD5 check sum: a169b0ebad56f5ec0d79c4633f80bf22
     Pseudo is Projector augmented-wave + core cor, Zval =  4.0
     Generated using 'atomic' code by A. Dal Corso  v.6.7MaX
     Shape of augmentation charge: PSQ
     Using radial grid of 1073 points,  4 beta functions with:
                l(1) =   0
                l(2) =   0
                l(3) =   1
                l(4) =   1
     Q(r) pseudized with 0 coefficients

     PseudoPot. # 3 for H  read from file:
     /users/bkreitz1/quantum-espresso/potentials/H.pbe-kjpaw_psl.1.0.0.UPF
     MD5 check sum: ae98473e6dc62675f0d0baffdab24f65
     Pseudo is Projector augmented-wave, Zval =  1.0
     Generated using 'atomic' code by A. Dal Corso  v.6.7MaX
     Shape of augmentation charge: PSQ
     Using radial grid of  929 points,  2 beta functions with:
                l(1) =   0
                l(2) =   0
     Q(r) pseudized with 0 coefficients

     PseudoPot. # 4 for O  read from file:
     /users/bkreitz1/quantum-espresso/potentials/O.pbe-nl-kjpaw_psl.1.0.0.UPF
     MD5 check sum: eef08af8b58d9ec80f8fdb78829eb7cf
     Pseudo is Projector augmented-wave + core cor, Zval =  6.0
     Generated using 'atomic' code by A. Dal Corso  v.6.7MaX
     Shape of augmentation charge: PSQ
     Using radial grid of 1095 points,  4 beta functions with:
                l(1) =   0
                l(2) =   0
                l(3) =   1
                l(4) =   1
     Q(r) pseudized with 0 coefficients

     atomic species   valence    mass     pseudopotential
        Pt            10.00   195.08400     Pt( 1.00)
        C              4.00    12.01100     C ( 1.00)
        H              1.00     1.00800     H ( 1.00)
        O              6.00    15.99900     O ( 1.00)

     No symmetry found

   Cartesian axes

     site n.     atom                  positions (alat units)
         1           Pt  tau(   1) = (   0.0000000   0.0000000   1.0017346  )
         2           Pt  tau(   2) = (   0.3333333   0.0000000   1.0017346  )
         3           Pt  tau(   3) = (   0.6666667   0.0000000   1.0017346  )
         4           Pt  tau(   4) = (   0.1666667   0.2886751   1.0017346  )
         5           Pt  tau(   5) = (   0.5000000   0.2886751   1.0017346  )
         6           Pt  tau(   6) = (   0.8333333   0.2886751   1.0017346  )
         7           Pt  tau(   7) = (   0.3333333   0.5773503   1.0017346  )
         8           Pt  tau(   8) = (   0.6666667   0.5773503   1.0017346  )
         9           Pt  tau(   9) = (   1.0000000   0.5773503   1.0017346  )
        10           Pt  tau(  10) = (   0.1666667   0.0962250   1.2739001  )
        11           Pt  tau(  11) = (   0.5000000   0.0962250   1.2739001  )
        12           Pt  tau(  12) = (   0.8333333   0.0962250   1.2739001  )
        13           Pt  tau(  13) = (   0.3333333   0.3849002   1.2739001  )
        14           Pt  tau(  14) = (   0.6666667   0.3849002   1.2739001  )
        15           Pt  tau(  15) = (   1.0000000   0.3849002   1.2739001  )
        16           Pt  tau(  16) = (   0.5000000   0.6735753   1.2739001  )
        17           Pt  tau(  17) = (   0.8333333   0.6735753   1.2739001  )
        18           Pt  tau(  18) = (   1.1666667   0.6735753   1.2739001  )
        19           Pt  tau(  19) = (  -0.0022826   0.1934030   1.5461819  )
        20           Pt  tau(  20) = (   0.3360222   0.1935449   1.5467528  )
        21           Pt  tau(  21) = (   0.6667450   0.1916833   1.5439637  )
        22           Pt  tau(  22) = (   0.1666232   0.4802827   1.5423844  )
        23           Pt  tau(  23) = (   0.4999424   0.4792834   1.5440877  )
        24           Pt  tau(  24) = (   0.8332769   0.4793120   1.5439273  )
        25           Pt  tau(  25) = (   0.3340091   0.7684996   1.5406901  )
        26           Pt  tau(  26) = (   0.6666815   0.7707491   1.5395242  )
        27           Pt  tau(  27) = (   0.9992113   0.7685778   1.5406631  )
        28           Pt  tau(  28) = (   0.0011456  -0.0041079   1.8160712  )
        29           Pt  tau(  29) = (   0.3322676  -0.0039726   1.8164010  )
        30           Pt  tau(  30) = (   0.6667061  -0.0061972   1.8115616  )
        31           Pt  tau(  31) = (   0.1670652   0.2866154   1.8167694  )
        32           Pt  tau(  32) = (   0.4983608   0.2857783   1.8233873  )
        33           Pt  tau(  33) = (   0.8362196   0.2859825   1.8220829  )
        34           Pt  tau(  34) = (   0.3323261   0.5764295   1.8160741  )
        35           Pt  tau(  35) = (   0.6666432   0.5802890   1.8116324  )
        36           Pt  tau(  36) = (   1.0011623   0.5767235   1.8158646  )
        37           C   tau(  37) = (   0.6714114   0.2889811   2.1387005  )
        38           H   tau(  38) = (   0.6723323   0.2895368   2.2682158  )
        39           O   tau(  39) = (   0.5352984   0.2889299   2.0769012  )
        40           O   tau(  40) = (   0.8066935   0.2888081   2.0762451  )

     number of k points=    13  Marzari-Vanderbilt smearing, width (Ry)=  0.0200
                       cart. coord. in units 2pi/alat
        k(    1) = (   0.0000000   0.0000000   0.0000000), wk =   0.0800000
        k(    2) = (   0.0000000   0.2309401   0.0000000), wk =   0.1600000
        k(    3) = (   0.0000000   0.4618802   0.0000000), wk =   0.1600000
        k(    4) = (   0.2000000  -0.1154701   0.0000000), wk =   0.1600000
        k(    5) = (   0.2000000   0.1154701   0.0000000), wk =   0.1600000
        k(    6) = (   0.2000000   0.3464102   0.0000000), wk =   0.1600000
        k(    7) = (   0.2000000  -0.5773503   0.0000000), wk =   0.1600000
        k(    8) = (   0.2000000  -0.3464102   0.0000000), wk =   0.1600000
        k(    9) = (   0.4000000  -0.2309401   0.0000000), wk =   0.1600000
        k(   10) = (   0.4000000  -0.0000000   0.0000000), wk =   0.1600000
        k(   11) = (   0.4000000   0.2309401   0.0000000), wk =   0.1600000
        k(   12) = (   0.4000000  -0.6928203   0.0000000), wk =   0.1600000
        k(   13) = (   0.4000000  -0.4618802   0.0000000), wk =   0.1600000

     Check: negative core charge=   -0.000001

     Initial potential from superposition of free atoms

     starting charge  376.99384, renormalised to  377.00000

     negative rho (up, down):  1.294E-02 0.000E+00

     %%%%%%%%%%%%%%%%%%%%%%%%%%%%%%%%%%%%%%%%%%%%%%%%%%%%%%%%%%%%%%%%%%%%%%%%
     %                                                                      %
     % You are using vdW-DF, which was implemented by the Thonhauser group. %
     % Please cite the following two papers that made this development      %
     % possible and the two reviews that describe the various versions:     %
     %                                                                      %
     %   T. Thonhauser et al., PRL 115, 136402 (2015).                      %
     %   T. Thonhauser et al., PRB 76, 125112 (2007).                       %
     %   K. Berland et al., Rep. Prog. Phys. 78, 066501 (2015).             %
     %   D.C. Langreth et al., J. Phys.: Condens. Matter 21, 084203 (2009). %
     %                                                                      %
     %                                                                      %
     % If you are calculating the stress with vdW-DF, please also cite:     %
     %                                                                      %
     %   R. Sabatini et al., J. Phys.: Condens. Matter 24, 424209 (2012).   %
     %                                                                      %
     %%%%%%%%%%%%%%%%%%%%%%%%%%%%%%%%%%%%%%%%%%%%%%%%%%%%%%%%%%%%%%%%%%%%%%%%

     Starting wfcs are  337 randomized atomic wfcs
     Checking if some PAW data can be deallocated...

     Self-consistent Calculation

     iteration #  1     ecut=    60.00 Ry     beta= 0.70
     Davidson diagonalization with overlap
     ethr =  1.00E-02,  avg # of iterations =  2.0

     Threshold (ethr) on eigenvalues was too large:
     Diagonalizing with lowered threshold

     Davidson diagonalization with overlap
     ethr =  5.95E-04,  avg # of iterations =  3.8

[...]

     total energy              =  -27859.17277122 Ry
     estimated scf accuracy    <       2.42032608 Ry

[...]

     iteration #  6     ecut=    60.00 Ry     beta= 0.70
     Davidson diagonalization with overlap
     c_bands:  1 eigenvalues not converged
     ethr =  9.08E-06,  avg # of iterations = 10.5

[...]

     iteration #  8     ecut=    60.00 Ry     beta= 0.70
     Davidson diagonalization with overlap
     c_bands:  1 eigenvalues not converged
     ethr =  1.89E-06,  avg # of iterations =  8.7

[...]

     total energy              =  -27859.47620646 Ry
     estimated scf accuracy    <       0.00000273 Ry

     iteration # 19     ecut=    60.00 Ry     beta= 0.70
     Davidson diagonalization with overlap
     ethr =  7.25E-10,  avg # of iterations =  2.0

[...]

     End of self-consistent calculation

          k = 0.0000 0.0000 0.0000 ( 91701 PWs)   bands (ev):

   -21.0064 -18.9985  -8.8186  -7.1795  -6.0862  -5.8928  -5.7918  -4.8214
    -4.7876  -4.7720  -4.7687  -4.7587  -4.7463  -4.7405  -4.7390  -4.5453
    -4.2229  -4.2181  -4.2067  -4.2019  -4.2003  -4.1917  -3.7660  -3.7464
    -3.7404  -3.7329  -3.7290  -3.7266  -3.5440  -3.5263  -3.5239  -3.5147
    -3.5113  -3.4918  -3.3091  -3.3029  -3.2981  -3.2958  -3.2916  -3.2885
    -3.2828  -3.2744  -3.2658  -3.2646  -3.2472  -3.2263  -2.7144  -2.7053
    -2.6750  -2.6643  -2.6489  -2.6436  -2.6062  -2.5989  -2.5939  -2.5900
    -2.4680  -2.4373  -2.3852  -2.3561  -2.1789  -1.9929  -1.9284  -1.8637
    -1.8478  -1.8269  -1.8199  -1.7751  -1.7648  -1.6916  -1.6813  -1.6727
    -1.6676  -1.6492  -1.6466  -1.6376  -1.6354  -1.6200  -1.6090  -1.6005
    -1.5988  -1.5735  -1.5711  -1.5098  -1.4877  -1.4444  -1.4249  -1.4227
    -1.4098  -1.3390  -1.3108  -1.2905  -1.2688  -1.2588  -1.2468  -1.2285
    -1.2102  -1.1932  -1.1897  -1.0932  -1.0927  -1.0897  -1.0351  -0.9964
    -0.9919  -0.9588  -0.9521  -0.9456  -0.8356  -0.8191  -0.8090  -0.7933
    -0.7814  -0.7698  -0.6578  -0.4925  -0.3479  -0.3343  -0.3292  -0.3270
    -0.3079  -0.2993  -0.2737  -0.2304  -0.2214  -0.2030  -0.1847  -0.1750
    -0.1571  -0.1425  -0.0229   0.0034   0.0192   0.0451   0.0671   0.1046
     0.1493   0.1561   0.1649   0.1832   0.1858   0.1870   0.3937   0.4152
     0.4229   0.4289   0.4308   0.4377   0.4957   0.4971   0.6856   0.6895
     0.6964   0.7025   0.7248   0.7445   0.8134   0.8281   0.8608   0.8654
     0.8793   0.8811   0.8992   0.9083   0.9220   0.9233   0.9611   0.9892
     1.0035   1.0224   1.0334   1.0375   1.0474   1.0562   1.1063   1.1146
     1.1201   1.1314   1.1335   1.1527   1.1581   1.1883   1.1993   1.2267
     1.2523   1.2569   1.2597   1.2792   1.2885   1.2989   1.3647   1.3702
     1.3747   1.3968   1.3980   1.4694   1.5749   1.6061   1.6745   1.6972
     1.6989   1.7159   1.7201   1.7226   1.8219   2.5397   2.5947   2.6164
     2.6186   2.6335   2.9272   3.4882   4.9048   4.9166   4.9417   4.9621
     5.2440   5.3492   5.4739   6.1138   6.4673   6.4738   6.5003   6.5133
     6.5195   6.5301   6.5428

[...]

          k = 0.4000-0.4619 0.0000 ( 91590 PWs)   bands (ev):

   -21.0064 -18.9985  -8.8154  -6.2683  -6.2166  -6.0364  -5.8026  -5.5998
    -4.9702  -4.9534  -4.5721  -4.4422  -4.4333  -4.3103  -4.2752  -4.1673
    -4.1626  -4.0597  -4.0519  -3.9492  -3.9450  -3.9285  -3.8937  -3.8874
    -3.8763  -3.8683  -3.7443  -3.7249  -3.7212  -3.6836  -3.6777  -3.5994
    -3.5078  -3.4732  -3.4203  -3.3306  -3.3233  -3.3143  -3.2961  -3.2787
    -3.1962  -3.1793  -3.0830  -3.0691  -2.9141  -2.8878  -2.8698  -2.7747
    -2.7516  -2.6994  -2.6849  -2.6023  -2.5405  -2.5019  -2.4936  -2.4701
    -2.4386  -2.3991  -2.3798  -2.3301  -2.2917  -2.2730  -2.2430  -2.2411
    -2.2328  -2.2187  -2.1620  -2.1573  -2.1117  -2.0242  -1.9976  -1.9652
    -1.9259  -1.8906  -1.8544  -1.8244  -1.7905  -1.7728  -1.7528  -1.7248
    -1.6885  -1.6688  -1.6354  -1.6005  -1.5849  -1.5639  -1.5296  -1.5187
    -1.4778  -1.4228  -1.3962  -1.3725  -1.3571  -1.3345  -1.2686  -1.2358
    -1.1883  -1.1806  -1.1495  -1.1428  -1.1091  -1.0969  -1.0836  -1.0598
    -1.0498  -1.0273  -1.0016  -0.9915  -0.9748  -0.9545  -0.9480  -0.9256
    -0.9141  -0.9046  -0.8838  -0.8377  -0.8044  -0.7325  -0.6094  -0.5876
    -0.5419  -0.5273  -0.4334  -0.4170  -0.4029  -0.3707  -0.3227  -0.3211
    -0.3022  -0.2866  -0.2643  -0.2032  -0.1712  -0.1553  -0.0960  -0.0845
    -0.0464  -0.0176   0.0209   0.1120   0.1554   0.2249   0.2409   0.2592
     0.2737   0.3367   0.3460   0.3634   0.3882   0.4039   0.4373   0.4557
     0.4766   0.5462   0.5773   0.5915   0.6222   0.6379   0.6478   0.6733
     0.6978   0.7595   0.8145   0.9136   0.9369   0.9997   1.0436   1.0765
     1.0888   1.1623   1.2158   1.2307   1.2714   1.3572   1.3631   1.3852
     1.4187   1.4331   1.4589   1.4718   1.4832   1.5428   1.5609   1.5940
     1.6028   1.6289   1.6488   1.6562   1.7079   1.7626   1.8245   1.8373
     1.8651   1.8686   1.9015   1.9246   1.9900   2.0583   2.1793   2.3182
     3.0097   3.0113   3.2744   3.3219   3.3984   3.4111   3.4557   3.5808
     4.0086   4.0299   4.0926   4.4898   4.5718   4.5893   4.6130   4.6418
     4.8432   4.9342   5.0836   5.1791   5.2818   5.4696   5.5697   5.6434
     6.1085   6.1169   6.1980

     the Fermi energy is     1.6395 ev

!    total energy              =  -27859.47620571 Ry

     total all-electron energy =  -1327021.699510 Ry
     estimated scf accuracy    <       0.00000053 Ry
     smearing contrib. (-TS)   =      -0.00177072 Ry
     internal energy E=F+TS    =  -27859.47443500 Ry

     The total energy is F=E-TS. E is the sum of the following terms:
     one-electron contribution =  -28975.03139470 Ry
     hartree contribution      =   14790.34744489 Ry
     xc contribution           =    -911.01633925 Ry
     ewald contribution        =   12737.02603484 Ry
     one-center paw contrib.   =  -25500.80018079 Ry

     convergence has been achieved in  19 iterations

[...]

     Forces acting on atoms (cartesian axes, Ry/au):

     atom    1 type  1   force =    -0.00076163   -0.00003366   -0.00720803
     atom    2 type  1   force =     0.00070511    0.00000661   -0.00715789
     atom    3 type  1   force =     0.00004401    0.00005834   -0.00375702
     atom    4 type  1   force =     0.00002368   -0.00108365   -0.00235389
     atom    5 type  1   force =    -0.00060232   -0.00078122   -0.00374909
     atom    6 type  1   force =     0.00061098   -0.00078889   -0.00382555
     atom    7 type  1   force =     0.00028360    0.00083414   -0.00333191
     atom    8 type  1   force =    -0.00000002    0.00123287   -0.00264048
     atom    9 type  1   force =    -0.00023072    0.00079182   -0.00331410
     atom   10 type  1   force =     0.00031423    0.00338147    0.00856633
     atom   11 type  1   force =    -0.00252591    0.00179253    0.00395746
     atom   12 type  1   force =     0.00245879    0.00159901    0.00348372
     atom   13 type  1   force =     0.00093522   -0.00191913    0.00668105
     atom   14 type  1   force =    -0.00010743   -0.00065430    0.00683452
     atom   15 type  1   force =    -0.00086430   -0.00178722    0.00628799
     atom   16 type  1   force =     0.00015720   -0.00081078    0.00051636
     atom   17 type  1   force =    -0.00020437   -0.00074717    0.00050340
     atom   18 type  1   force =     0.00001071   -0.00112655    0.00046880
     atom   19 type  1   force =     0.00018203   -0.00013880   -0.00037124
     atom   20 type  1   force =     0.00019463   -0.00010434   -0.00017283
     atom   21 type  1   force =     0.00012875    0.00000108   -0.00033005
     atom   22 type  1   force =     0.00014019   -0.00003721   -0.00036919
     atom   23 type  1   force =     0.00009989   -0.00008774   -0.00027810
     atom   24 type  1   force =     0.00014354   -0.00005675   -0.00032669
     atom   25 type  1   force =     0.00017219   -0.00006892   -0.00015979
     atom   26 type  1   force =     0.00015815   -0.00008639   -0.00003647
     atom   27 type  1   force =     0.00006129   -0.00003497   -0.00014414
     atom   28 type  1   force =     0.00010238    0.00015700    0.00017629
     atom   29 type  1   force =     0.00018345    0.00005054    0.00014185
     atom   30 type  1   force =     0.00019585    0.00005206    0.00011036
     atom   31 type  1   force =     0.00006482    0.00001968    0.00002490
     atom   32 type  1   force =     0.00046122    0.00009435    0.00075058
     atom   33 type  1   force =     0.00018654    0.00012569    0.00172880
     atom   34 type  1   force =     0.00020715    0.00002156    0.00015188
     atom   35 type  1   force =     0.00021809   -0.00019195    0.00013066
     atom   36 type  1   force =     0.00009560   -0.00008973    0.00017850
     atom   37 type  2   force =    -0.00707627    0.00054059    0.00743671
     atom   38 type  3   force =    -0.00154031   -0.00006856    0.00062226
     atom   39 type  4   force =    -0.00020898   -0.00002553   -0.00144105
     atom   40 type  4   force =     0.00558300   -0.00003586   -0.00778491

     Total force =     0.014403     Total SCF correction =     0.001644
     SCF correction compared to forces is large: reduce conv_thr to get better values

[...]

     negative rho (up, down):  1.470E-02 0.000E+00

     negative rho (up, down):  1.470E-02 0.000E+00
 BEEFens 2000 ensemble energies
             -0.609833747783727E+02
             -0.363110242667838E+01
             -0.159130187562916E+02
              0.431608524024798E+02
             -0.222265315145028E+02
             -0.206367987350835E+02
             -0.354353176227016E+02
             -0.869602037914787E+02
             -0.467647307789207E+02
             -0.475236344783975E+02
             -0.371122494096878E+02
              0.229313940893941E+01
              0.408452094917081E+01
              0.764624317149705E+01
              0.267351505583969E+01
              0.477351201375670E+02
             -0.210015860194776E+02
             -0.231442380865948E+02
              0.193736108695316E+02
             -0.112974959627342E+03
              0.539257616704095E+02
             -0.291096655877473E+02
             -0.336282902585895E+01
             -0.114724449823706E+02
             -0.887501779811282E+01
             -0.469065989328467E+01
              0.887401557938798E+02
             -0.187803269207763E+02
             -0.906834331471521E+01
             -0.521121682927614E+02
              0.819777495544374E+02
             -0.188252753166928E+02
             -0.376955546035715E+02
              0.250675432182101E+02
             -0.285604587423614E+01
              0.164849729587531E+02
             -0.487814553608996E+01
              0.108604176835683E+02
              0.289489676542837E+02
             -0.103826574339055E+03
              0.561213601419670E+02
              0.143069368864725E+02
             -0.172784204565204E+01
             -0.363462703564761E+02
              0.123727997273257E+02
             -0.147459899745866E+02
              0.400542355893045E+02
              0.366807939049964E+02
             -0.309638132976266E+02
             -0.276554974335572E+02
             -0.329761649066077E+02
             -0.353894276445895E+02
              0.136779153219113E+02
             -0.493580814871224E+02
              0.116237767242819E+02
              0.626352444571359E+02
              0.638691513245878E+02
              0.357674360062082E+02
              0.155145670652656E+02
              0.271884261817711E+02
[...]
             -0.709741818447052E+02
             -0.907343624984264E+00
             -0.246733191482599E+01
             -0.887385583530488E+01
             -0.179095354330440E+01
             -0.656253465481279E+02
             -0.211798711387795E+02
              0.542313153558511E+01
              0.902284344586653E+01
              0.471181312791451E+02
             -0.399627306516982E+02
              0.660744637535917E+02
             -0.427315180052163E+02
              0.211406052949368E+02
              0.352205576776602E+02

 BEEF-vdW xc energy contributions
           1 :   -786.742892444580
           2 :    722.724483790320
           3 :   -611.914506674910
           4 :    481.491620906642
           5 :   -359.011535867888
           6 :    264.308921006239
           7 :   -205.054552362350
           8 :    176.757601399126
           9 :   -166.771441250756
          10 :    160.432960392837
          11 :   -146.846347832532
          12 :    122.135380848935
          13 :   -89.3174691805627
          14 :    55.4115912958656
          15 :   -27.4537200397715
          16 :    9.23112395409703
          17 :   1.059318395937225E-002
          18 :   -4.63777581544252
          19 :    10.1596364790770
          20 :   -20.5151340307623
          21 :    36.3661155447176
          22 :   -55.0788617089677
          23 :    72.2307521151696
          24 :   -83.8179887859171
          25 :    88.0852433122232
          26 :   -86.1705644061842
          27 :    81.3505581846881
          28 :   -77.3482754682893
          29 :    76.5675895919899
          30 :   -79.0846414796852
          31 :   -86.1642051269936
          32 :   -66.0075857261002

     Writing output data file ./pwscf.save/

     General routines

     Parallel routines

   This run was terminated on:  19:51:30  20May2022

   JOB DONE.