     Program PWSCF v.6.7MaX starts on 26Sep2022 at 22: 8:17

     Reading input from hcoo-mono-ensemble.in
Warning: card &CELL ignored
Warning: card / ignored

     Current dimensions of program PWSCF are:
     Max number of different atomic species (ntypx) = 10
     Max number of k-points (npk) =  40000
     Max angular momentum in pseudopotentials (lmaxx) =  3
     file Pt.pbe-n-kjpaw_psl.1.0.0.UPF: wavefunction(s)  6S 5D renormalized
     file C.pbe-n-kjpaw_psl.1.0.0.UPF: wavefunction(s)  2S 2P renormalized
     file H.pbe-kjpaw_psl.1.0.0.UPF: wavefunction(s)  1S renormalized
     file O.pbe-nl-kjpaw_psl.1.0.0.UPF: wavefunction(s)  2S 2P renormalized

     IMPORTANT: XC functional enforced from input :
     Exchange-correlation= BEEF-VDW
                           (   1   4  43  14   2   0   0)
     Any further DFT definition will be discarded
     Please, verify this is what you really want

     Subspace diagonalization in iterative solution of the eigenvalue problem:
     a serial algorithm will be used

     bravais-lattice index     =            0
     lattice parameter (alat)  =      16.0349  a.u.
     unit-cell volume          =   11893.4922 (a.u.)^3
     number of atoms/cell      =           40
     number of atomic types    =            4
     number of electrons       =       377.00
     number of Kohn-Sham states=          227
     kinetic-energy cutoff     =      60.0000  Ry
     charge density cutoff     =     240.0000  Ry
     scf convergence threshold =      1.0E-06
     mixing beta               =       0.7000
     number of iterations used =            8  local-TF  mixing
     Exchange-correlation= BEEF-VDW
                           (   1   4  43  14   2   0   0)

     celldm(1)=  16.034858  celldm(2)=   0.000000  celldm(3)=   0.000000
     celldm(4)=   0.000000  celldm(5)=   0.000000  celldm(6)=   0.000000

     crystal axes: (cart. coord. in units of alat)
               a(1) = (   1.000000   0.000000   0.000000 )
               a(2) = (   0.500000   0.866025   0.000000 )
               a(3) = (   0.000000   0.000000   3.331067 )

     reciprocal axes: (cart. coord. in units 2 pi/alat)
               b(1) = (  1.000000 -0.577350  0.000000 )
               b(2) = (  0.000000  1.154701  0.000000 )
               b(3) = (  0.000000  0.000000  0.300204 )

     PseudoPot. # 1 for Pt read from file:
     /users/bkreitz1/quantum-espresso/potentials/Pt.pbe-n-kjpaw_psl.1.0.0.UPF
     MD5 check sum: 04dc8a03c51ece93fc7b5889c2958091
     Pseudo is Projector augmented-wave + core cor, Zval = 10.0
     Generated using 'atomic' code by A. Dal Corso  v.6.7MaX
     Shape of augmentation charge: PSQ
     Using radial grid of 1277 points,  6 beta functions with:
                l(1) =   0
                l(2) =   0
                l(3) =   1
                l(4) =   1
                l(5) =   2
                l(6) =   2
     Q(r) pseudized with 0 coefficients

     PseudoPot. # 2 for C  read from file:
     /users/bkreitz1/quantum-espresso/potentials/C.pbe-n-kjpaw_psl.1.0.0.UPF
     MD5 check sum: a169b0ebad56f5ec0d79c4633f80bf22
     Pseudo is Projector augmented-wave + core cor, Zval =  4.0
     Generated using 'atomic' code by A. Dal Corso  v.6.7MaX
     Shape of augmentation charge: PSQ
     Using radial grid of 1073 points,  4 beta functions with:
                l(1) =   0
                l(2) =   0
                l(3) =   1
                l(4) =   1
     Q(r) pseudized with 0 coefficients

     PseudoPot. # 3 for H  read from file:
     /users/bkreitz1/quantum-espresso/potentials/H.pbe-kjpaw_psl.1.0.0.UPF
     MD5 check sum: ae98473e6dc62675f0d0baffdab24f65
     Pseudo is Projector augmented-wave, Zval =  1.0
     Generated using 'atomic' code by A. Dal Corso  v.6.7MaX
     Shape of augmentation charge: PSQ
     Using radial grid of  929 points,  2 beta functions with:
                l(1) =   0
                l(2) =   0
     Q(r) pseudized with 0 coefficients

     PseudoPot. # 4 for O  read from file:
     /users/bkreitz1/quantum-espresso/potentials/O.pbe-nl-kjpaw_psl.1.0.0.UPF
     MD5 check sum: eef08af8b58d9ec80f8fdb78829eb7cf
     Pseudo is Projector augmented-wave + core cor, Zval =  6.0
     Generated using 'atomic' code by A. Dal Corso  v.6.7MaX
     Shape of augmentation charge: PSQ
     Using radial grid of 1095 points,  4 beta functions with:
                l(1) =   0
                l(2) =   0
                l(3) =   1
                l(4) =   1
     Q(r) pseudized with 0 coefficients

     atomic species   valence    mass     pseudopotential
        Pt            10.00   195.08400     Pt( 1.00)
        C              4.00    12.01100     C ( 1.00)
        H              1.00     1.00800     H ( 1.00)
        O              6.00    15.99900     O ( 1.00)

     No symmetry found

   Cartesian axes

     site n.     atom                  positions (alat units)
         1           Pt  tau(   1) = (   0.0000000   0.0000000   1.0017346  )
         2           Pt  tau(   2) = (   0.3333333   0.0000000   1.0017346  )
         3           Pt  tau(   3) = (   0.6666667   0.0000000   1.0017346  )
         4           Pt  tau(   4) = (   0.1666667   0.2886751   1.0017346  )
         5           Pt  tau(   5) = (   0.5000000   0.2886751   1.0017346  )
         6           Pt  tau(   6) = (   0.8333333   0.2886751   1.0017346  )
         7           Pt  tau(   7) = (   0.3333333   0.5773503   1.0017346  )
         8           Pt  tau(   8) = (   0.6666667   0.5773503   1.0017346  )
         9           Pt  tau(   9) = (   1.0000000   0.5773503   1.0017346  )
        10           Pt  tau(  10) = (   0.1666667   0.0962250   1.2739001  )
        11           Pt  tau(  11) = (   0.5000000   0.0962250   1.2739001  )
        12           Pt  tau(  12) = (   0.8333333   0.0962250   1.2739001  )
        13           Pt  tau(  13) = (   0.3333333   0.3849002   1.2739001  )
        14           Pt  tau(  14) = (   0.6666667   0.3849002   1.2739001  )
        15           Pt  tau(  15) = (   1.0000000   0.3849002   1.2739001  )
        16           Pt  tau(  16) = (   0.5000000   0.6735753   1.2739001  )
        17           Pt  tau(  17) = (   0.8333333   0.6735753   1.2739001  )
        18           Pt  tau(  18) = (   1.1666667   0.6735753   1.2739001  )
        19           Pt  tau(  19) = (   0.0006687   0.1914811   1.5412230  )
        20           Pt  tau(  20) = (   0.3350273   0.1924128   1.5456884  )
        21           Pt  tau(  21) = (   0.6655363   0.1921669   1.5448153  )
        22           Pt  tau(  22) = (   0.1666668   0.4802104   1.5421457  )
        23           Pt  tau(  23) = (   0.5001410   0.4789208   1.5453713  )
        24           Pt  tau(  24) = (   0.8333985   0.4803672   1.5420523  )
        25           Pt  tau(  25) = (   0.3336762   0.7691742   1.5409153  )
        26           Pt  tau(  26) = (   0.6666829   0.7691109   1.5408813  )
        27           Pt  tau(  27) = (   1.0001659   0.7688795   1.5418610  )
        28           Pt  tau(  28) = (   0.0002581  -0.0021008   1.8164262  )
        29           Pt  tau(  29) = (   0.3325654  -0.0036468   1.8146720  )
        30           Pt  tau(  30) = (   0.6680118  -0.0038308   1.8145990  )
        31           Pt  tau(  31) = (   0.1650183   0.2867109   1.8159170  )
        32           Pt  tau(  32) = (   0.4998415   0.2872643   1.8260988  )
        33           Pt  tau(  33) = (   0.8361000   0.2866182   1.8137129  )
        34           Pt  tau(  34) = (   0.3326488   0.5775940   1.8147336  )
        35           Pt  tau(  35) = (   0.6679184   0.5776581   1.8147965  )
        36           Pt  tau(  36) = (   1.0001651   0.5756214   1.8164894  )
        37           C   tau(  37) = (   0.4046656   0.2880305   2.1666615  )
        38           H   tau(  38) = (   0.2858196   0.2924570   2.1115794  )
        39           O   tau(  39) = (   0.5259326   0.2862720   2.0673016  )
        40           O   tau(  40) = (   0.4249983   0.2845679   2.3094467  )

     number of k points=    13  Marzari-Vanderbilt smearing, width (Ry)=  0.0200
                       cart. coord. in units 2pi/alat
        k(    1) = (   0.0000000   0.0000000   0.0000000), wk =   0.0800000
        k(    2) = (   0.0000000   0.2309401   0.0000000), wk =   0.1600000
        k(    3) = (   0.0000000   0.4618802   0.0000000), wk =   0.1600000
        k(    4) = (   0.2000000  -0.1154701   0.0000000), wk =   0.1600000
        k(    5) = (   0.2000000   0.1154701   0.0000000), wk =   0.1600000
        k(    6) = (   0.2000000   0.3464102   0.0000000), wk =   0.1600000
        k(    7) = (   0.2000000  -0.5773503   0.0000000), wk =   0.1600000
        k(    8) = (   0.2000000  -0.3464102   0.0000000), wk =   0.1600000
        k(    9) = (   0.4000000  -0.2309401   0.0000000), wk =   0.1600000
        k(   10) = (   0.4000000  -0.0000000   0.0000000), wk =   0.1600000
        k(   11) = (   0.4000000   0.2309401   0.0000000), wk =   0.1600000
        k(   12) = (   0.4000000  -0.6928203   0.0000000), wk =   0.1600000
        k(   13) = (   0.4000000  -0.4618802   0.0000000), wk =   0.1600000

     Check: negative core charge=   -0.000001

     Initial potential from superposition of free atoms

     starting charge  376.99384, renormalised to  377.00000

     negative rho (up, down):  1.335E-02 0.000E+00

     %%%%%%%%%%%%%%%%%%%%%%%%%%%%%%%%%%%%%%%%%%%%%%%%%%%%%%%%%%%%%%%%%%%%%%%%
     %                                                                      %
     % You are using vdW-DF, which was implemented by the Thonhauser group. %
     % Please cite the following two papers that made this development      %
     % possible and the two reviews that describe the various versions:     %
     %                                                                      %
     %   T. Thonhauser et al., PRL 115, 136402 (2015).                      %
     %   T. Thonhauser et al., PRB 76, 125112 (2007).                       %
     %   K. Berland et al., Rep. Prog. Phys. 78, 066501 (2015).             %
     %   D.C. Langreth et al., J. Phys.: Condens. Matter 21, 084203 (2009). %
     %                                                                      %
     %                                                                      %
     % If you are calculating the stress with vdW-DF, please also cite:     %
     %                                                                      %
     %   R. Sabatini et al., J. Phys.: Condens. Matter 24, 424209 (2012).   %
     %                                                                      %
     %%%%%%%%%%%%%%%%%%%%%%%%%%%%%%%%%%%%%%%%%%%%%%%%%%%%%%%%%%%%%%%%%%%%%%%%

     Starting wfcs are  337 randomized atomic wfcs
     Checking if some PAW data can be deallocated...

     Self-consistent Calculation

     iteration #  1     ecut=    60.00 Ry     beta= 0.70
     Davidson diagonalization with overlap
     ethr =  1.00E-02,  avg # of iterations =  2.0

     Threshold (ethr) on eigenvalues was too large:
     Diagonalizing with lowered threshold

     Davidson diagonalization with overlap
     ethr =  7.08E-04,  avg # of iterations =  3.0

[...]

     total energy              =  -27859.13861589 Ry
     estimated scf accuracy    <       2.82654984 Ry

[...]

     iteration #  4     ecut=    60.00 Ry     beta= 0.70
     Davidson diagonalization with overlap
     c_bands:  1 eigenvalues not converged
     ethr =  1.07E-04,  avg # of iterations =  9.1

[...]

     iteration # 17     ecut=    60.00 Ry     beta= 0.70
     Davidson diagonalization with overlap
     c_bands:  1 eigenvalues not converged
     c_bands:  1 eigenvalues not converged
     ethr =  3.74E-08,  avg # of iterations =  7.8

[...]

     total energy              =  -27859.42180216 Ry
     estimated scf accuracy    <       0.00000129 Ry

     iteration # 22     ecut=    60.00 Ry     beta= 0.70
     Davidson diagonalization with overlap
     ethr =  3.42E-10,  avg # of iterations =  2.0

[...]

     End of self-consistent calculation

          k = 0.0000 0.0000 0.0000 ( 93407 PWs)   bands (ev):

   -20.3778 -18.1830  -8.1478  -7.8840  -6.6656  -6.3117  -5.4956  -5.4711
    -5.4676  -5.4665  -5.4565  -5.4461  -5.4417  -5.4185  -4.9094  -4.9054
    -4.9043  -4.8987  -4.8969  -4.8851  -4.4423  -4.4411  -4.4313  -4.4251
    -4.4228  -4.4161  -4.2287  -4.2237  -4.2162  -4.2127  -4.2119  -4.1822
    -4.0984  -4.0492  -3.9934  -3.9874  -3.9832  -3.9802  -3.9798  -3.9725
    -3.9689  -3.9643  -3.9494  -3.9408  -3.9298  -3.8939  -3.3664  -3.3642
    -3.3534  -3.3502  -3.3250  -3.2856  -3.2838  -3.2807  -3.2695  -3.2663
    -3.1410  -3.1375  -3.0566  -3.0504  -2.6057  -2.5408  -2.5377  -2.5346
    -2.5311  -2.5242  -2.4688  -2.3981  -2.3742  -2.3735  -2.3669  -2.3464
    -2.3399  -2.3396  -2.3226  -2.3172  -2.3118  -2.3027  -2.2954  -2.2902
    -2.2730  -2.2692  -2.1876  -2.1331  -2.1227  -2.1176  -2.1106  -2.1039
    -1.9828  -1.9707  -1.9676  -1.9552  -1.9521  -1.9426  -1.8850  -1.8830
    -1.8128  -1.7971  -1.7775  -1.7483  -1.7390  -1.7284  -1.6880  -1.6864
    -1.6480  -1.6464  -1.5919  -1.5432  -1.5003  -1.4933  -1.4847  -1.4719
    -1.4288  -1.2075  -1.1308  -1.0347  -1.0113  -1.0084  -1.0000  -0.9979
    -0.9970  -0.9616  -0.9224  -0.9213  -0.9197  -0.8659  -0.8335  -0.8259
    -0.7696  -0.7083  -0.6822  -0.6807  -0.6323  -0.5976  -0.5752  -0.5406
    -0.5266  -0.5153  -0.5076  -0.5068  -0.3478  -0.2970  -0.2672  -0.2646
    -0.2630  -0.2493  -0.1960  -0.1934  -0.1187  -0.0458  -0.0011   0.0007
     0.0126   0.0215   0.0514   0.0988   0.1431   0.1459   0.1689   0.1727
     0.1778   0.1959   0.2147   0.2170   0.2322   0.2547   0.2669   0.3181
     0.3299   0.3340   0.3461   0.3724   0.3832   0.3871   0.3956   0.4229
     0.4241   0.4658   0.4686   0.4731   0.4810   0.4999   0.5078   0.5486
     0.5619   0.5630   0.5795   0.5885   0.5902   0.5975   0.6846   0.6852
     0.6892   0.7028   0.7036   0.7497   0.8938   0.9035   0.9933   0.9964
     1.0196   1.0209   1.0247   1.0366   1.1555   1.9062   1.9185   1.9249
     1.9409   1.9587   1.9716   2.7420   4.2236   4.2408   4.2724   4.2776
     4.2929   4.8137   5.6164   5.7765   5.7812   5.8263   5.8298   5.8443
     5.8651   6.2022   6.5086

[...]

          k = 0.4000-0.4619 0.0000 ( 93312 PWs)   bands (ev):

   -20.3778 -18.1830  -8.1477  -6.9367  -6.9170  -6.4499  -6.2574  -5.6578
    -5.6039  -5.1429  -5.1198  -5.0078  -4.9718  -4.8654  -4.8603  -4.7610
    -4.7507  -4.6390  -4.6315  -4.6292  -4.5960  -4.5856  -4.5684  -4.5572
    -4.4336  -4.4239  -4.4119  -4.3836  -4.3734  -4.2874  -4.1995  -4.1690
    -4.1220  -4.0837  -4.0370  -4.0102  -3.9978  -3.9943  -3.9720  -3.9447
    -3.8656  -3.8573  -3.7708  -3.7660  -3.5859  -3.5805  -3.5320  -3.4245
    -3.4164  -3.3804  -3.3647  -3.2554  -3.2256  -3.1780  -3.1703  -3.1494
    -3.1122  -3.0951  -3.0656  -2.9702  -2.9673  -2.9451  -2.9332  -2.9307
    -2.9146  -2.9097  -2.8595  -2.8425  -2.7166  -2.6981  -2.6550  -2.6434
    -2.5414  -2.5291  -2.4922  -2.4838  -2.4463  -2.4153  -2.3972  -2.3736
    -2.3148  -2.2952  -2.2877  -2.2607  -2.2358  -2.2116  -2.1700  -2.1358
    -2.0974  -2.0783  -2.0577  -2.0487  -1.9654  -1.9407  -1.8917  -1.8731
    -1.8496  -1.8356  -1.8068  -1.8004  -1.7908  -1.7537  -1.7432  -1.7264
    -1.7046  -1.6996  -1.6748  -1.6578  -1.6462  -1.6424  -1.6237  -1.6027
    -1.5671  -1.5624  -1.5237  -1.3847  -1.3127  -1.2767  -1.2272  -1.2169
    -1.1360  -1.1124  -1.1055  -1.0798  -1.0317  -1.0195  -0.9925  -0.9763
    -0.9676  -0.9310  -0.8784  -0.8523  -0.8148  -0.7920  -0.7487  -0.7255
    -0.6887  -0.6759  -0.5771  -0.5235  -0.4676  -0.4471  -0.4250  -0.3776
    -0.3471  -0.3257  -0.3190  -0.3041  -0.2859  -0.2686  -0.2385  -0.1922
    -0.1498  -0.1082  -0.0881  -0.0730  -0.0555  -0.0310  -0.0186   0.0033
     0.0529   0.1345   0.1596   0.2460   0.2867   0.3068   0.3691   0.3885
     0.4203   0.4789   0.5261   0.5308   0.5907   0.6455   0.6814   0.6990
     0.7315   0.7405   0.7631   0.7818   0.7971   0.8235   0.8862   0.9048
     0.9151   0.9377   0.9584   0.9702   0.9841   1.0269   1.1293   1.1503
     1.1713   1.1747   1.1810   1.2347   1.2846   1.3598   1.4993   1.6850
     2.3198   2.3228   2.5738   2.6124   2.7148   2.7235   2.7551   2.8727
     3.3099   3.3376   3.3691   3.8023   3.8441   3.9253   3.9437   3.9529
     4.1562   4.2464   4.3966   4.5511   4.7478   4.7950   4.9078   5.4100
     5.4222   5.4530   5.6758

     the Fermi energy is     0.9455 ev

!    total energy              =  -27859.42180226 Ry

     total all-electron energy =  -1327021.645106 Ry
     estimated scf accuracy    <       0.00000035 Ry
     smearing contrib. (-TS)   =       0.00117462 Ry
     internal energy E=F+TS    =  -27859.42297688 Ry

     The total energy is F=E-TS. E is the sum of the following terms:
     one-electron contribution =  -29671.54518996 Ry
     hartree contribution      =   15129.85067675 Ry
     xc contribution           =    -910.92309988 Ry
     ewald contribution        =   13093.99180504 Ry
     one-center paw contrib.   =  -25500.79716882 Ry

     convergence has been achieved in  22 iterations

[...]

     Forces acting on atoms (cartesian axes, Ry/au):

     atom    1 type  1   force =    -0.00048358   -0.00022270   -0.00767589
     atom    2 type  1   force =    -0.00078038    0.00024482   -0.00310087
     atom    3 type  1   force =     0.00067036    0.00006939   -0.00357572
     atom    4 type  1   force =    -0.00052460   -0.00057080   -0.00326085
     atom    5 type  1   force =    -0.00000406    0.00000640   -0.00360900
     atom    6 type  1   force =     0.00051909   -0.00053813   -0.00318587
     atom    7 type  1   force =     0.00029989    0.00099984   -0.00321680
     atom    8 type  1   force =    -0.00042681    0.00079557   -0.00328975
     atom    9 type  1   force =     0.00008773    0.00009269   -0.00293172
     atom   10 type  1   force =     0.00062760    0.00032787    0.00145619
     atom   11 type  1   force =     0.00006862    0.00150195    0.00686366
     atom   12 type  1   force =     0.00020378    0.00019142    0.00120431
     atom   13 type  1   force =     0.00159458   -0.00130145    0.00779160
     atom   14 type  1   force =    -0.00154267   -0.00122652    0.00697288
     atom   15 type  1   force =     0.00002727   -0.00015311    0.00179924
     atom   16 type  1   force =    -0.00008216   -0.00123202    0.00130012
     atom   17 type  1   force =     0.00038781   -0.00073204    0.00170760
     atom   18 type  1   force =     0.00000294   -0.00051220    0.00149415
     atom   19 type  1   force =    -0.00001836    0.00020601   -0.00036070
     atom   20 type  1   force =     0.00026922    0.00034075    0.00031687
     atom   21 type  1   force =     0.00007871    0.00012876    0.00035216
     atom   22 type  1   force =     0.00022126    0.00007367   -0.00002267
     atom   23 type  1   force =    -0.00008125   -0.00002553    0.00023708
     atom   24 type  1   force =     0.00016304   -0.00003668   -0.00040156
     atom   25 type  1   force =     0.00003797   -0.00015984   -0.00014875
     atom   26 type  1   force =     0.00002946    0.00002580    0.00013793
     atom   27 type  1   force =     0.00022113   -0.00003985    0.00006770
     atom   28 type  1   force =     0.00005185    0.00037338    0.00000693
     atom   29 type  1   force =     0.00008094    0.00010511    0.00006106
     atom   30 type  1   force =     0.00018783    0.00028336   -0.00020442
     atom   31 type  1   force =    -0.00008435    0.00030077    0.00013103
     atom   32 type  1   force =     0.00044565    0.00016157   -0.00032011
     atom   33 type  1   force =     0.00010856    0.00010277    0.00057693
     atom   34 type  1   force =     0.00011157    0.00011200    0.00004688
     atom   35 type  1   force =     0.00003974    0.00016958   -0.00000207
     atom   36 type  1   force =     0.00019243    0.00004877    0.00006434
     atom   37 type  2   force =     0.00279048   -0.00101923    0.02544910
     atom   38 type  3   force =     0.00079320   -0.00000607    0.00126532
     atom   39 type  4   force =    -0.00275385   -0.00003192    0.00393008
     atom   40 type  4   force =    -0.00353067    0.00114584   -0.02792640

     Total force =     0.038440     Total SCF correction =     0.001765

[...]

     negative rho (up, down):  1.436E-02 0.000E+00

     negative rho (up, down):  1.436E-02 0.000E+00
 BEEFens 2000 ensemble energies
             -0.609722107845117E+02
             -0.362711101793656E+01
             -0.159074429443934E+02
              0.431603525455371E+02
             -0.222296750640348E+02
             -0.206347325829744E+02
             -0.354408924549386E+02
             -0.869550610259157E+02
             -0.467677217900236E+02
             -0.475346622719013E+02
             -0.371029973062469E+02
              0.229289668094187E+01
              0.407206476901027E+01
              0.764938864323540E+01
              0.267349394145447E+01
              0.477309276667104E+02
             -0.210073435601755E+02
             -0.231431438992529E+02
              0.193597834488041E+02
             -0.112972085057764E+03
              0.539244710603140E+02
             -0.291087388472801E+02
             -0.336518395142922E+01
             -0.114808383352690E+02
             -0.887151995771046E+01
             -0.469789504125458E+01
              0.887412722556053E+02
             -0.187725671278976E+02
             -0.906881182175687E+01
             -0.521005690570798E+02
              0.819788372444227E+02
             -0.188260461706049E+02
             -0.376935114379402E+02
              0.250686448843449E+02
             -0.286063092345529E+01
              0.164739149276055E+02
             -0.488412415291600E+01
              0.108645934127486E+02
              0.289299378546738E+02
             -0.103827776526465E+03
              0.561220251685727E+02
              0.143014872698420E+02
             -0.172994175212420E+01
             -0.363413258027070E+02
              0.123716386540049E+02
             -0.147483605439101E+02
              0.400507556211638E+02
              0.366843294908655E+02
             -0.309689591862019E+02
             -0.276504381474668E+02
             -0.329610749827407E+02
             -0.353874855456073E+02
              0.136695206550216E+02
             -0.493545122340727E+02
              0.116246362047372E+02
              0.626277317100716E+02
              0.638614806171659E+02
              0.357721754797102E+02
              0.155224329494108E+02
              0.271835622590646E+02
[...]
             -0.709687784073000E+02
             -0.903555034575106E+00
             -0.246236166394954E+01
             -0.887149911775009E+01
             -0.179384724258819E+01
             -0.656290083511412E+02
             -0.211850428401118E+02
              0.542202864771248E+01
              0.901821170999136E+01
              0.471121522924238E+02
             -0.399513051760970E+02
              0.660819818318660E+02
             -0.427282359934743E+02
              0.211360955919864E+02
              0.352208680805415E+02

 BEEF-vdW xc energy contributions
           1 :   -786.635415507925
           2 :    722.531654235591
           3 :   -611.676830587097
           4 :    481.321738897648
           5 :   -358.983342397358
           6 :    264.409658846215
           7 :   -205.205279438424
           8 :    176.868663448882
           9 :   -166.792952049939
          10 :    160.373070914099
          11 :   -146.756891863313
          12 :    122.079625380723
          13 :   -89.3331199551143
          14 :    55.4895658934419
          15 :   -27.5494083644862
          16 :    9.29614949000484
          17 :   2.390302340359085E-003
          18 :   -4.68012758961731
          19 :    10.2201485100223
          20 :   -20.5551323827794
          21 :    36.3614646962583
          22 :   -55.0268888646544
          23 :    72.1445835701027
          24 :   -83.7178838676850
          25 :    87.9871313000799
          26 :   -86.0747813931885
          27 :    81.2454268029570
          28 :   -77.2255403974004
          29 :    76.4328550051141
          30 :   -78.9603104903248
          31 :   -86.1554140992405
          32 :   -65.9828788115434

     Writing output data file ./pwscf.save/

     General routines

     Parallel routines

   This run was terminated on:   2:44:40  27Sep2022

   JOB DONE.