     Program PWSCF v.6.7MaX starts on 21Dec2022 at 12:53: 0

     Reading input from hooh-ensemble.in
Warning: card &CELL ignored
Warning: card / ignored

     Current dimensions of program PWSCF are:
     Max number of different atomic species (ntypx) = 10
     Max number of k-points (npk) =  40000
     Max angular momentum in pseudopotentials (lmaxx) =  3
     file Pt.pbe-n-kjpaw_psl.1.0.0.UPF: wavefunction(s)  6S 5D renormalized
     file O.pbe-nl-kjpaw_psl.1.0.0.UPF: wavefunction(s)  2S 2P renormalized
     file H.pbe-kjpaw_psl.1.0.0.UPF: wavefunction(s)  1S renormalized

     IMPORTANT: XC functional enforced from input :
     Exchange-correlation= BEEF-VDW
                           (   1   4  43  14   2   0   0)
     Any further DFT definition will be discarded
     Please, verify this is what you really want

     Subspace diagonalization in iterative solution of the eigenvalue problem:
     a serial algorithm will be used

     bravais-lattice index     =            0
     lattice parameter (alat)  =      16.0349  a.u.
     unit-cell volume          =   11441.7184 (a.u.)^3
     number of atoms/cell      =           40
     number of atomic types    =            3
     number of electrons       =       374.00
     number of Kohn-Sham states=          224
     kinetic-energy cutoff     =      60.0000  Ry
     charge density cutoff     =     240.0000  Ry
     scf convergence threshold =      1.0E-06
     mixing beta               =       0.7000
     number of iterations used =            8  local-TF  mixing
     Exchange-correlation= BEEF-VDW
                           (   1   4  43  14   2   0   0)

     celldm(1)=  16.034858  celldm(2)=   0.000000  celldm(3)=   0.000000
     celldm(4)=   0.000000  celldm(5)=   0.000000  celldm(6)=   0.000000

     crystal axes: (cart. coord. in units of alat)
               a(1) = (   1.000000   0.000000   0.000000 )
               a(2) = (   0.500000   0.866025   0.000000 )
               a(3) = (   0.000000   0.000000   3.204537 )

     reciprocal axes: (cart. coord. in units 2 pi/alat)
               b(1) = (  1.000000 -0.577350  0.000000 )
               b(2) = (  0.000000  1.154701  0.000000 )
               b(3) = (  0.000000  0.000000  0.312058 )

     PseudoPot. # 1 for Pt read from file:
     /users/bkreitz1/quantum-espresso/potentials/Pt.pbe-n-kjpaw_psl.1.0.0.UPF
     MD5 check sum: 04dc8a03c51ece93fc7b5889c2958091
     Pseudo is Projector augmented-wave + core cor, Zval = 10.0
     Generated using 'atomic' code by A. Dal Corso  v.6.7MaX
     Shape of augmentation charge: PSQ
     Using radial grid of 1277 points,  6 beta functions with:
                l(1) =   0
                l(2) =   0
                l(3) =   1
                l(4) =   1
                l(5) =   2
                l(6) =   2
     Q(r) pseudized with 0 coefficients

     PseudoPot. # 2 for O  read from file:
     /users/bkreitz1/quantum-espresso/potentials/O.pbe-nl-kjpaw_psl.1.0.0.UPF
     MD5 check sum: eef08af8b58d9ec80f8fdb78829eb7cf
     Pseudo is Projector augmented-wave + core cor, Zval =  6.0
     Generated using 'atomic' code by A. Dal Corso  v.6.7MaX
     Shape of augmentation charge: PSQ
     Using radial grid of 1095 points,  4 beta functions with:
                l(1) =   0
                l(2) =   0
                l(3) =   1
                l(4) =   1
     Q(r) pseudized with 0 coefficients

     PseudoPot. # 3 for H  read from file:
     /users/bkreitz1/quantum-espresso/potentials/H.pbe-kjpaw_psl.1.0.0.UPF
     MD5 check sum: ae98473e6dc62675f0d0baffdab24f65
     Pseudo is Projector augmented-wave, Zval =  1.0
     Generated using 'atomic' code by A. Dal Corso  v.6.7MaX
     Shape of augmentation charge: PSQ
     Using radial grid of  929 points,  2 beta functions with:
                l(1) =   0
                l(2) =   0
     Q(r) pseudized with 0 coefficients

     atomic species   valence    mass     pseudopotential
        Pt            10.00   195.08400     Pt( 1.00)
        O              6.00    15.99900     O ( 1.00)
        H              1.00     1.00800     H ( 1.00)

     No symmetry found

   Cartesian axes

     site n.     atom                  positions (alat units)
         1           Pt  tau(   1) = (   0.0000000   0.0000000   1.0017346  )
         2           Pt  tau(   2) = (   0.3333333   0.0000000   1.0017346  )
         3           Pt  tau(   3) = (   0.6666667   0.0000000   1.0017346  )
         4           Pt  tau(   4) = (   0.1666667   0.2886751   1.0017346  )
         5           Pt  tau(   5) = (   0.5000000   0.2886751   1.0017346  )
         6           Pt  tau(   6) = (   0.8333333   0.2886751   1.0017346  )
         7           Pt  tau(   7) = (   0.3333333   0.5773503   1.0017346  )
         8           Pt  tau(   8) = (   0.6666667   0.5773503   1.0017346  )
         9           Pt  tau(   9) = (   1.0000000   0.5773503   1.0017346  )
        10           Pt  tau(  10) = (   0.1666667   0.0962250   1.2739001  )
        11           Pt  tau(  11) = (   0.5000000   0.0962250   1.2739001  )
        12           Pt  tau(  12) = (   0.8333333   0.0962250   1.2739001  )
        13           Pt  tau(  13) = (   0.3333333   0.3849002   1.2739001  )
        14           Pt  tau(  14) = (   0.6666667   0.3849002   1.2739001  )
        15           Pt  tau(  15) = (   1.0000000   0.3849002   1.2739001  )
        16           Pt  tau(  16) = (   0.5000000   0.6735753   1.2739001  )
        17           Pt  tau(  17) = (   0.8333333   0.6735753   1.2739001  )
        18           Pt  tau(  18) = (   1.1666667   0.6735753   1.2739001  )
        19           Pt  tau(  19) = (  -0.0001217   0.1924090   1.5426246  )
        20           Pt  tau(  20) = (   0.3333705   0.1921153   1.5433414  )
        21           Pt  tau(  21) = (   0.6667315   0.1924789   1.5426580  )
        22           Pt  tau(  22) = (   0.1668487   0.4812398   1.5419619  )
        23           Pt  tau(  23) = (   0.4998388   0.4812970   1.5419468  )
        24           Pt  tau(  24) = (   0.8332597   0.4810471   1.5427035  )
        25           Pt  tau(  25) = (   0.3332569   0.7695191   1.5418399  )
        26           Pt  tau(  26) = (   0.6670510   0.7701590   1.5437428  )
        27           Pt  tau(  27) = (   0.9995570   0.7701007   1.5433663  )
        28           Pt  tau(  28) = (  -0.0010908   0.0002593   1.8167940  )
        29           Pt  tau(  29) = (   0.3340222  -0.0002459   1.8185258  )
        30           Pt  tau(  30) = (   0.6681505   0.0000891   1.8162629  )
        31           Pt  tau(  31) = (   0.1659672   0.2896343   1.8159283  )
        32           Pt  tau(  32) = (   0.5007091   0.2896965   1.8162904  )
        33           Pt  tau(  33) = (   0.8333642   0.2885548   1.8173733  )
        34           Pt  tau(  34) = (   0.3335084   0.5775479   1.8169074  )
        35           Pt  tau(  35) = (   0.6660878   0.5764216   1.8162065  )
        36           Pt  tau(  36) = (   1.0005518   0.5763150   1.8159384  )
        37           O   tau(  37) = (   0.1877937   0.0245772   2.2029163  )
        38           O   tau(  38) = (   0.3424603   0.0051360   2.1249083  )
        39           H   tau(  39) = (   0.3883296   0.1091049   2.1429255  )
        40           H   tau(  40) = (   0.1183399   0.0265708   2.1116239  )

     number of k points=    13  Marzari-Vanderbilt smearing, width (Ry)=  0.0200
                       cart. coord. in units 2pi/alat
        k(    1) = (   0.0000000   0.0000000   0.0000000), wk =   0.0800000
        k(    2) = (   0.0000000   0.2309401   0.0000000), wk =   0.1600000
        k(    3) = (   0.0000000   0.4618802   0.0000000), wk =   0.1600000
        k(    4) = (   0.2000000  -0.1154701   0.0000000), wk =   0.1600000
        k(    5) = (   0.2000000   0.1154701   0.0000000), wk =   0.1600000
        k(    6) = (   0.2000000   0.3464102   0.0000000), wk =   0.1600000
        k(    7) = (   0.2000000  -0.5773503   0.0000000), wk =   0.1600000
        k(    8) = (   0.2000000  -0.3464102   0.0000000), wk =   0.1600000
        k(    9) = (   0.4000000  -0.2309401   0.0000000), wk =   0.1600000
        k(   10) = (   0.4000000  -0.0000000   0.0000000), wk =   0.1600000
        k(   11) = (   0.4000000   0.2309401   0.0000000), wk =   0.1600000
        k(   12) = (   0.4000000  -0.6928203   0.0000000), wk =   0.1600000
        k(   13) = (   0.4000000  -0.4618802   0.0000000), wk =   0.1600000

     Initial potential from superposition of free atoms

     starting charge  373.99387, renormalised to  374.00000

     negative rho (up, down):  1.240E-02 0.000E+00

     %%%%%%%%%%%%%%%%%%%%%%%%%%%%%%%%%%%%%%%%%%%%%%%%%%%%%%%%%%%%%%%%%%%%%%%%
     %                                                                      %
     % You are using vdW-DF, which was implemented by the Thonhauser group. %
     % Please cite the following two papers that made this development      %
     % possible and the two reviews that describe the various versions:     %
     %                                                                      %
     %   T. Thonhauser et al., PRL 115, 136402 (2015).                      %
     %   T. Thonhauser et al., PRB 76, 125112 (2007).                       %
     %   K. Berland et al., Rep. Prog. Phys. 78, 066501 (2015).             %
     %   D.C. Langreth et al., J. Phys.: Condens. Matter 21, 084203 (2009). %
     %                                                                      %
     %                                                                      %
     % If you are calculating the stress with vdW-DF, please also cite:     %
     %                                                                      %
     %   R. Sabatini et al., J. Phys.: Condens. Matter 24, 424209 (2012).   %
     %                                                                      %
     %%%%%%%%%%%%%%%%%%%%%%%%%%%%%%%%%%%%%%%%%%%%%%%%%%%%%%%%%%%%%%%%%%%%%%%%

     Starting wfcs are  334 randomized atomic wfcs
     Checking if some PAW data can be deallocated...

     Self-consistent Calculation

     iteration #  1     ecut=    60.00 Ry     beta= 0.70
     Davidson diagonalization with overlap
     ethr =  1.00E-02,  avg # of iterations =  2.0

     Threshold (ethr) on eigenvalues was too large:
     Diagonalizing with lowered threshold

     Davidson diagonalization with overlap
     ethr =  5.04E-04,  avg # of iterations =  4.0

[...]

     total energy              =  -27841.27053932 Ry
     estimated scf accuracy    <       2.06317586 Ry

[...]

     iteration #  4     ecut=    60.00 Ry     beta= 0.70
     Davidson diagonalization with overlap
     c_bands:  1 eigenvalues not converged
     c_bands:  1 eigenvalues not converged
     c_bands:  2 eigenvalues not converged
     ethr =  4.08E-05,  avg # of iterations = 13.2

[...]

     iteration # 11     ecut=    60.00 Ry     beta= 0.70
     Davidson diagonalization with overlap
     c_bands:  1 eigenvalues not converged
     c_bands:  1 eigenvalues not converged
     ethr =  9.01E-08,  avg # of iterations =  6.6

[...]

     total energy              =  -27841.52163941 Ry
     estimated scf accuracy    <       0.00000175 Ry

     iteration # 18     ecut=    60.00 Ry     beta= 0.70
     Davidson diagonalization with overlap
     ethr =  4.67E-10,  avg # of iterations =  2.0

[...]

     End of self-consistent calculation

          k = 0.0000 0.0000 0.0000 ( 89803 PWs)   bands (ev):

   -21.5913 -16.3209  -7.2254  -6.8692  -5.9355  -5.6247  -4.8333  -4.8025
    -4.8018  -4.8010  -4.7987  -4.7927  -4.7916  -4.7818  -4.2476  -4.2415
    -4.2411  -4.2394  -4.2392  -4.2369  -3.8577  -3.7729  -3.7722  -3.7694
    -3.7665  -3.7631  -3.7614  -3.5575  -3.5516  -3.5510  -3.5506  -3.5475
    -3.5452  -3.3229  -3.3221  -3.3174  -3.3157  -3.3141  -3.3088  -3.3078
    -3.3058  -3.3041  -3.3037  -3.2875  -3.2789  -2.7064  -2.7058  -2.6797
    -2.6771  -2.6343  -2.6237  -2.6201  -2.6192  -2.6180  -2.6176  -2.4827
    -2.4789  -2.3970  -2.3796  -1.8839  -1.8776  -1.8740  -1.8718  -1.8715
    -1.8697  -1.8081  -1.7679  -1.7141  -1.7139  -1.6837  -1.6835  -1.6785
    -1.6761  -1.6560  -1.6520  -1.6516  -1.6485  -1.6479  -1.6453  -1.6122
    -1.6118  -1.5425  -1.4608  -1.4602  -1.4560  -1.4542  -1.4524  -1.3219
    -1.3070  -1.2995  -1.2988  -1.2979  -1.2969  -1.2913  -1.2075  -1.2073
    -1.1127  -1.1124  -1.0588  -1.0501  -1.0394  -1.0387  -1.0062  -0.9978
    -0.9936  -0.9922  -0.8436  -0.8396  -0.8347  -0.8306  -0.8292  -0.8247
    -0.7337  -0.3550  -0.3473  -0.3391  -0.3338  -0.3332  -0.3310  -0.3096
    -0.2822  -0.2703  -0.2656  -0.2606  -0.2601  -0.1991  -0.1840  -0.1782
    -0.0333  -0.0275  -0.0197  -0.0175  -0.0073   0.0310   0.1162   0.1178
     0.1338   0.1346   0.1422   0.1424   0.3858   0.3892   0.3950   0.3962
     0.3998   0.4018   0.4731   0.4748   0.6486   0.6552   0.6559   0.6597
     0.6646   0.6856   0.8222   0.8233   0.8317   0.8324   0.8327   0.8388
     0.8552   0.8701   0.8721   0.8761   0.8769   0.9387   1.0006   1.0130
     1.0167   1.0179   1.0198   1.0277   1.0327   1.0438   1.1086   1.1092
     1.1296   1.1314   1.1319   1.1358   1.1443   1.1446   1.2253   1.2260
     1.2364   1.2404   1.2418   1.2439   1.3294   1.3396   1.3436   1.3451
     1.3527   1.3530   1.4817   1.5601   1.5619   1.6619   1.6639   1.6737
     1.6738   1.6752   1.6806   2.4797   2.5128   2.5539   2.5618   2.5651
     2.5706   2.7337   4.6096   4.8513   4.8792   4.8893   4.9045   4.9360
     5.2569   6.2032   6.4268   6.4313   6.4815   6.4826   6.4906   6.4907

[...]

          k = 0.4000-0.4619 0.0000 ( 89818 PWs)   bands (ev):

   -21.5913 -16.3209  -6.8721  -6.2558  -6.2535  -5.6900  -5.6078  -4.9985
    -4.9793  -4.4822  -4.4756  -4.3466  -4.3117  -4.2043  -4.2004  -4.0973
    -4.0925  -3.9827  -3.9695  -3.9672  -3.9319  -3.9276  -3.9250  -3.8978
    -3.8171  -3.7747  -3.7606  -3.7584  -3.7198  -3.7150  -3.6212  -3.5304
    -3.5052  -3.4438  -3.3476  -3.3459  -3.3340  -3.3311  -3.3117  -3.2061
    -3.2031  -3.1080  -3.1047  -2.9311  -2.9211  -2.8662  -2.7697  -2.7653
    -2.7156  -2.7109  -2.6029  -2.5556  -2.5115  -2.5052  -2.4850  -2.4424
    -2.4348  -2.4077  -2.3065  -2.3026  -2.2768  -2.2722  -2.2657  -2.2630
    -2.2579  -2.1892  -2.1868  -2.0631  -2.0379  -1.9890  -1.9856  -1.8714
    -1.8409  -1.8288  -1.8270  -1.7829  -1.7421  -1.7379  -1.6597  -1.6479
    -1.6354  -1.6177  -1.6041  -1.5701  -1.5548  -1.5067  -1.4952  -1.4612
    -1.4081  -1.4033  -1.3898  -1.3421  -1.2748  -1.2252  -1.2219  -1.1854
    -1.1818  -1.1374  -1.1307  -1.1261  -1.1188  -1.0912  -1.0862  -1.0424
    -1.0397  -1.0045  -0.9931  -0.9859  -0.9849  -0.9754  -0.9595  -0.9402
    -0.8807  -0.8729  -0.8579  -0.6624  -0.6411  -0.5633  -0.5551  -0.4517
    -0.4448  -0.4371  -0.4099  -0.3633  -0.3491  -0.3423  -0.3335  -0.3187
    -0.2615  -0.2329  -0.2059  -0.1849  -0.1396  -0.1271  -0.0924  -0.0546
    -0.0316   0.0120   0.1396   0.2002   0.2042   0.2254   0.2307   0.3142
     0.3254   0.3273   0.3475   0.3579   0.3812   0.4040   0.4132   0.5180
     0.5248   0.5456   0.5884   0.5945   0.6124   0.6209   0.6374   0.6591
     0.7978   0.8558   0.8828   0.9534   0.9642   1.0403   1.0451   1.1255
     1.1670   1.1775   1.1911   1.2807   1.3033   1.3548   1.3859   1.3967
     1.4061   1.4187   1.4443   1.4625   1.5007   1.5636   1.5658   1.5904
     1.6101   1.6165   1.6194   1.6624   1.6923   1.8205   1.8268   1.8304
     1.8330   1.8437   1.9073   1.9861   2.0221   2.1573   2.9797   2.9813
     3.1754   3.2262   3.2763   3.3760   3.3839   3.3943   3.8295   3.9881
     3.9936   4.4133   4.4552   4.4877   4.5824   4.5948   4.7217   4.8253
     4.8962   4.9605   5.2001   5.3602   5.4308   5.4758   5.9543   6.0747

     the Fermi energy is     1.5989 ev

!    total energy              =  -27841.52163978 Ry

     total all-electron energy =  -1326945.980842 Ry
     estimated scf accuracy    <       0.00000083 Ry
     smearing contrib. (-TS)   =       0.00146528 Ry
     internal energy E=F+TS    =  -27841.52310507 Ry

     The total energy is F=E-TS. E is the sum of the following terms:
     one-electron contribution =  -27367.55075266 Ry
     hartree contribution      =   13985.01472231 Ry
     xc contribution           =    -906.79847131 Ry
     ewald contribution        =   11942.05608420 Ry
     one-center paw contrib.   =  -25494.24468761 Ry

     convergence has been achieved in  18 iterations

[...]

     Forces acting on atoms (cartesian axes, Ry/au):

     atom    1 type  1   force =    -0.00011465   -0.00023266   -0.00293117
     atom    2 type  1   force =    -0.00005009   -0.00002282   -0.00364912
     atom    3 type  1   force =     0.00010482   -0.00019244   -0.00307794
     atom    4 type  1   force =     0.00017695    0.00028776   -0.00316295
     atom    5 type  1   force =    -0.00019386    0.00023723   -0.00314177
     atom    6 type  1   force =     0.00004479    0.00003635   -0.00313373
     atom    7 type  1   force =     0.00005050   -0.00015356   -0.00524918
     atom    8 type  1   force =    -0.00019486    0.00001098   -0.00302212
     atom    9 type  1   force =     0.00014361   -0.00011419   -0.00291228
     atom   10 type  1   force =     0.00051118   -0.00035111    0.00419421
     atom   11 type  1   force =    -0.00048386   -0.00036362    0.00401550
     atom   12 type  1   force =    -0.00007227    0.00041211    0.00290769
     atom   13 type  1   force =    -0.00010857   -0.00032652    0.00375079
     atom   14 type  1   force =     0.00056791   -0.00018231    0.00320943
     atom   15 type  1   force =    -0.00052203   -0.00008279    0.00270709
     atom   16 type  1   force =     0.00058912    0.00053670    0.00345866
     atom   17 type  1   force =    -0.00013166    0.00056710    0.00376644
     atom   18 type  1   force =    -0.00093967    0.00016776    0.00261820
     atom   19 type  1   force =    -0.00021705    0.00031339   -0.00016650
     atom   20 type  1   force =    -0.00003479   -0.00002216   -0.00045433
     atom   21 type  1   force =     0.00026526    0.00016145   -0.00018209
     atom   22 type  1   force =    -0.00019009   -0.00002653   -0.00022048
     atom   23 type  1   force =     0.00017110   -0.00000665   -0.00015561
     atom   24 type  1   force =     0.00005991   -0.00016552   -0.00031400
     atom   25 type  1   force =    -0.00000864    0.00014214    0.00000241
     atom   26 type  1   force =     0.00014192   -0.00012673   -0.00049018
     atom   27 type  1   force =     0.00000419   -0.00010908   -0.00038464
     atom   28 type  1   force =     0.00020591    0.00002223    0.00035897
     atom   29 type  1   force =     0.00001458   -0.00006882    0.00075979
     atom   30 type  1   force =     0.00000422   -0.00000240    0.00026971
     atom   31 type  1   force =     0.00013120   -0.00009909    0.00021872
     atom   32 type  1   force =     0.00007890   -0.00001248    0.00023780
     atom   33 type  1   force =     0.00009859    0.00015288    0.00001788
     atom   34 type  1   force =     0.00001820   -0.00000925   -0.00024512
     atom   35 type  1   force =     0.00028397    0.00006000    0.00017166
     atom   36 type  1   force =    -0.00000696    0.00000389    0.00019433
     atom   37 type  2   force =     0.00700415   -0.00015843    0.01250884
     atom   38 type  2   force =    -0.00017640   -0.00002006   -0.00125537
     atom   39 type  3   force =    -0.00031826   -0.00035542   -0.00023649
     atom   40 type  3   force =    -0.00690727    0.00009268   -0.01098306

     Total force =     0.019448     Total SCF correction =     0.001863

[...]

     negative rho (up, down):  1.338E-02 0.000E+00

     negative rho (up, down):  1.338E-02 0.000E+00
 BEEFens 2000 ensemble energies
             -0.606689906695965E+02
             -0.361129047852413E+01
             -0.158421082727833E+02
              0.429592303266318E+02
             -0.221345926459617E+02
             -0.205566966654750E+02
             -0.352319097912948E+02
             -0.865080494879633E+02
             -0.465882228008707E+02
             -0.473529334837550E+02
             -0.369269616149456E+02
              0.226490338494676E+01
              0.404666866186511E+01
              0.766906243539603E+01
              0.265637767891911E+01
              0.475030470949644E+02
             -0.209202059224569E+02
             -0.230814691776965E+02
              0.192486789193231E+02
             -0.112446441465493E+03
              0.536561817237065E+02
             -0.290079073761324E+02
             -0.334421237454954E+01
             -0.114400753945480E+02
             -0.886800084635581E+01
             -0.466713252461415E+01
              0.883273348696771E+02
             -0.186628187379035E+02
             -0.902823582804876E+01
             -0.518304401098960E+02
              0.816415345784360E+02
             -0.187911112723760E+02
             -0.375024506266132E+02
              0.249721675271335E+02
             -0.285118056058622E+01
              0.163484810294825E+02
             -0.488614283402489E+01
              0.108595372621976E+02
              0.287620695820844E+02
             -0.103352641509611E+03
              0.558683167414374E+02
              0.142366883554430E+02
             -0.168141112000325E+01
             -0.361879270390030E+02
              0.123137114746510E+02
             -0.146731607076746E+02
              0.398230108044843E+02
              0.365151719616961E+02
             -0.308676889590678E+02
             -0.274958702088442E+02
             -0.328145436931218E+02
             -0.352121510169903E+02
              0.135764120298105E+02
             -0.491102606901597E+02
              0.115552803920583E+02
              0.623324223720331E+02
              0.635144633474977E+02
              0.356253890722390E+02
              0.154448639415895E+02
              0.270350190121997E+02
[...]
             -0.706160295461149E+02
             -0.913302376438764E+00
             -0.246135719441781E+01
             -0.882245556558792E+01
             -0.181160321001039E+01
             -0.653189787372885E+02
             -0.211284354310497E+02
              0.537026353471074E+01
              0.895886330885844E+01
              0.468789744626011E+02
             -0.397501745461772E+02
              0.658202471647955E+02
             -0.425428281408619E+02
              0.210144661079757E+02
              0.350190554708352E+02

 BEEF-vdW xc energy contributions
           1 :   -783.152281486585
           2 :    719.490920226131
           3 :   -609.354385069883
           4 :    479.788000701572
           5 :   -358.136926499908
           6 :    264.050509367711
           7 :   -205.113751357558
           8 :    176.869564762031
           9 :   -166.785065542039
          10 :    160.325537941227
          11 :   -146.687010032876
          12 :    122.022623228565
          13 :   -89.3188986760993
          14 :    55.5374491498762
          15 :   -27.6685791690018
          16 :    9.48395087099948
          17 :  -0.238499241536601
          18 :   -4.41264102048012
          19 :    9.95649136515692
          20 :   -20.3173206436189
          21 :    36.1578500345863
          22 :   -54.8583867158909
          23 :    72.0114397368200
          24 :   -83.6216767021755
          25 :    87.9327865844882
          26 :   -86.0703371535163
          27 :    81.2976958694068
          28 :   -77.3374756420633
          29 :    76.6061952630404
          30 :   -79.1962966078414
          31 :   -85.7225131785211
          32 :   -65.6805881221834

     Writing output data file ./pwscf.save/

     General routines

     Parallel routines

   This run was terminated on:  16:36:10  21Dec2022

   JOB DONE.