     Program PWSCF v.6.7MaX starts on 20May2022 at 15:53:26

     Reading input from isoc3h5-ensemble.in
Warning: card &CELL ignored
Warning: card / ignored

     Current dimensions of program PWSCF are:
     Max number of different atomic species (ntypx) = 10
     Max number of k-points (npk) =  40000
     Max angular momentum in pseudopotentials (lmaxx) =  3
     file Pt.pbe-n-kjpaw_psl.1.0.0.UPF: wavefunction(s)  6S 5D renormalized
     file C.pbe-n-kjpaw_psl.1.0.0.UPF: wavefunction(s)  2S 2P renormalized
     file H.pbe-kjpaw_psl.1.0.0.UPF: wavefunction(s)  1S renormalized

     IMPORTANT: XC functional enforced from input :
     Exchange-correlation= BEEF-VDW
                           (   1   4  43  14   2   0   0)
     Any further DFT definition will be discarded
     Please, verify this is what you really want

     Subspace diagonalization in iterative solution of the eigenvalue problem:
     a serial algorithm will be used

     bravais-lattice index     =            0
     lattice parameter (alat)  =      16.0349  a.u.
     unit-cell volume          =   11535.8745 (a.u.)^3
     number of atoms/cell      =           44
     number of atomic types    =            3
     number of electrons       =       377.00
     number of Kohn-Sham states=          227
     kinetic-energy cutoff     =      60.0000  Ry
     charge density cutoff     =     240.0000  Ry
     scf convergence threshold =      1.0E-06
     mixing beta               =       0.7000
     number of iterations used =            8  local-TF  mixing
     Exchange-correlation= BEEF-VDW
                           (   1   4  43  14   2   0   0)

     celldm(1)=  16.034858  celldm(2)=   0.000000  celldm(3)=   0.000000
     celldm(4)=   0.000000  celldm(5)=   0.000000  celldm(6)=   0.000000

     crystal axes: (cart. coord. in units of alat)
               a(1) = (   1.000000   0.000000   0.000000 )
               a(2) = (   0.500000   0.866025   0.000000 )
               a(3) = (   0.000000   0.000000   3.230908 )

     reciprocal axes: (cart. coord. in units 2 pi/alat)
               b(1) = (  1.000000 -0.577350  0.000000 )
               b(2) = (  0.000000  1.154701  0.000000 )
               b(3) = (  0.000000  0.000000  0.309511 )

     PseudoPot. # 1 for Pt read from file:
     /users/bkreitz1/quantum-espresso/potentials/Pt.pbe-n-kjpaw_psl.1.0.0.UPF
     MD5 check sum: 04dc8a03c51ece93fc7b5889c2958091
     Pseudo is Projector augmented-wave + core cor, Zval = 10.0
     Generated using 'atomic' code by A. Dal Corso  v.6.7MaX
     Shape of augmentation charge: PSQ
     Using radial grid of 1277 points,  6 beta functions with:
                l(1) =   0
                l(2) =   0
                l(3) =   1
                l(4) =   1
                l(5) =   2
                l(6) =   2
     Q(r) pseudized with 0 coefficients

     PseudoPot. # 2 for C  read from file:
     /users/bkreitz1/quantum-espresso/potentials/C.pbe-n-kjpaw_psl.1.0.0.UPF
     MD5 check sum: a169b0ebad56f5ec0d79c4633f80bf22
     Pseudo is Projector augmented-wave + core cor, Zval =  4.0
     Generated using 'atomic' code by A. Dal Corso  v.6.7MaX
     Shape of augmentation charge: PSQ
     Using radial grid of 1073 points,  4 beta functions with:
                l(1) =   0
                l(2) =   0
                l(3) =   1
                l(4) =   1
     Q(r) pseudized with 0 coefficients

     PseudoPot. # 3 for H  read from file:
     /users/bkreitz1/quantum-espresso/potentials/H.pbe-kjpaw_psl.1.0.0.UPF
     MD5 check sum: ae98473e6dc62675f0d0baffdab24f65
     Pseudo is Projector augmented-wave, Zval =  1.0
     Generated using 'atomic' code by A. Dal Corso  v.6.7MaX
     Shape of augmentation charge: PSQ
     Using radial grid of  929 points,  2 beta functions with:
                l(1) =   0
                l(2) =   0
     Q(r) pseudized with 0 coefficients

     atomic species   valence    mass     pseudopotential
        Pt            10.00   195.08400     Pt( 1.00)
        C              4.00    12.01100     C ( 1.00)
        H              1.00     1.00800     H ( 1.00)

     No symmetry found

   Cartesian axes

     site n.     atom                  positions (alat units)
         1           Pt  tau(   1) = (   0.0000000   0.0000000   1.0017346  )
         2           Pt  tau(   2) = (   0.3333333   0.0000000   1.0017346  )
         3           Pt  tau(   3) = (   0.6666667   0.0000000   1.0017346  )
         4           Pt  tau(   4) = (   0.1666667   0.2886751   1.0017346  )
         5           Pt  tau(   5) = (   0.5000000   0.2886751   1.0017346  )
         6           Pt  tau(   6) = (   0.8333333   0.2886751   1.0017346  )
         7           Pt  tau(   7) = (   0.3333333   0.5773503   1.0017346  )
         8           Pt  tau(   8) = (   0.6666667   0.5773503   1.0017346  )
         9           Pt  tau(   9) = (   1.0000000   0.5773503   1.0017346  )
        10           Pt  tau(  10) = (   0.1666667   0.0962250   1.2739001  )
        11           Pt  tau(  11) = (   0.5000000   0.0962250   1.2739001  )
        12           Pt  tau(  12) = (   0.8333333   0.0962250   1.2739001  )
        13           Pt  tau(  13) = (   0.3333333   0.3849002   1.2739001  )
        14           Pt  tau(  14) = (   0.6666667   0.3849002   1.2739001  )
        15           Pt  tau(  15) = (   1.0000000   0.3849002   1.2739001  )
        16           Pt  tau(  16) = (   0.5000000   0.6735753   1.2739001  )
        17           Pt  tau(  17) = (   0.8333333   0.6735753   1.2739001  )
        18           Pt  tau(  18) = (   1.1666667   0.6735753   1.2739001  )
        19           Pt  tau(  19) = (   0.0019116   0.1945316   1.5475365  )
        20           Pt  tau(  20) = (   0.3333545   0.1927433   1.5459009  )
        21           Pt  tau(  21) = (   0.6647727   0.1945409   1.5475501  )
        22           Pt  tau(  22) = (   0.1663005   0.4794125   1.5447744  )
        23           Pt  tau(  23) = (   0.5004027   0.4794200   1.5447578  )
        24           Pt  tau(  24) = (   0.8333391   0.4808141   1.5437515  )
        25           Pt  tau(  25) = (   0.3333579   0.7714568   1.5387097  )
        26           Pt  tau(  26) = (   0.6678591   0.7699342   1.5449236  )
        27           Pt  tau(  27) = (   0.9988396   0.7699281   1.5449139  )
        28           Pt  tau(  28) = (  -0.0013680  -0.0003839   1.8153789  )
        29           Pt  tau(  29) = (   0.3333974  -0.0077023   1.8272409  )
        30           Pt  tau(  30) = (   0.6681130  -0.0003795   1.8153575  )
        31           Pt  tau(  31) = (   0.1705122   0.2878088   1.8373176  )
        32           Pt  tau(  32) = (   0.4961992   0.2878953   1.8373386  )
        33           Pt  tau(  33) = (   0.8333683   0.2880850   1.8201292  )
        34           Pt  tau(  34) = (   0.3333705   0.5830087   1.8114009  )
        35           Pt  tau(  35) = (   0.6658683   0.5747234   1.8182606  )
        36           Pt  tau(  36) = (   1.0008687   0.5747085   1.8182592  )
        37           C   tau(  37) = (   0.3333476   0.2548218   2.0188857  )
        38           C   tau(  38) = (   0.3332106   0.3688130   2.1558102  )
        39           C   tau(  39) = (   0.3334930   0.0836819   2.0555084  )
        40           H   tau(  40) = (   0.2290447   0.3469016   2.2291730  )
        41           H   tau(  41) = (   0.4378398   0.3477915   2.2287689  )
        42           H   tau(  42) = (   0.3325654   0.4919451   2.1190742  )
        43           H   tau(  43) = (   0.2272939   0.0434412   2.1165887  )
        44           H   tau(  44) = (   0.4398143   0.0436077   2.1176657  )

     number of k points=    13  Marzari-Vanderbilt smearing, width (Ry)=  0.0200
                       cart. coord. in units 2pi/alat
        k(    1) = (   0.0000000   0.0000000   0.0000000), wk =   0.0800000
        k(    2) = (   0.0000000   0.2309401   0.0000000), wk =   0.1600000
        k(    3) = (   0.0000000   0.4618802   0.0000000), wk =   0.1600000
        k(    4) = (   0.2000000  -0.1154701   0.0000000), wk =   0.1600000
        k(    5) = (   0.2000000   0.1154701   0.0000000), wk =   0.1600000
        k(    6) = (   0.2000000   0.3464102   0.0000000), wk =   0.1600000
        k(    7) = (   0.2000000  -0.5773503   0.0000000), wk =   0.1600000
        k(    8) = (   0.2000000  -0.3464102   0.0000000), wk =   0.1600000
        k(    9) = (   0.4000000  -0.2309401   0.0000000), wk =   0.1600000
        k(   10) = (   0.4000000  -0.0000000   0.0000000), wk =   0.1600000
        k(   11) = (   0.4000000   0.2309401   0.0000000), wk =   0.1600000
        k(   12) = (   0.4000000  -0.6928203   0.0000000), wk =   0.1600000
        k(   13) = (   0.4000000  -0.4618802   0.0000000), wk =   0.1600000

     Check: negative core charge=   -0.000002

     Initial potential from superposition of free atoms

     starting charge  376.99372, renormalised to  377.00000

     negative rho (up, down):  1.113E-02 0.000E+00

     %%%%%%%%%%%%%%%%%%%%%%%%%%%%%%%%%%%%%%%%%%%%%%%%%%%%%%%%%%%%%%%%%%%%%%%%
     %                                                                      %
     % You are using vdW-DF, which was implemented by the Thonhauser group. %
     % Please cite the following two papers that made this development      %
     % possible and the two reviews that describe the various versions:     %
     %                                                                      %
     %   T. Thonhauser et al., PRL 115, 136402 (2015).                      %
     %   T. Thonhauser et al., PRB 76, 125112 (2007).                       %
     %   K. Berland et al., Rep. Prog. Phys. 78, 066501 (2015).             %
     %   D.C. Langreth et al., J. Phys.: Condens. Matter 21, 084203 (2009). %
     %                                                                      %
     %                                                                      %
     % If you are calculating the stress with vdW-DF, please also cite:     %
     %                                                                      %
     %   R. Sabatini et al., J. Phys.: Condens. Matter 24, 424209 (2012).   %
     %                                                                      %
     %%%%%%%%%%%%%%%%%%%%%%%%%%%%%%%%%%%%%%%%%%%%%%%%%%%%%%%%%%%%%%%%%%%%%%%%

     Starting wfcs are  341 randomized atomic wfcs
     Checking if some PAW data can be deallocated...

     Self-consistent Calculation

     iteration #  1     ecut=    60.00 Ry     beta= 0.70
     Davidson diagonalization with overlap
     ethr =  1.00E-02,  avg # of iterations =  2.5

     Threshold (ethr) on eigenvalues was too large:
     Diagonalizing with lowered threshold

     Davidson diagonalization with overlap
     ethr =  8.94E-04,  avg # of iterations =  2.2

[...]

     total energy              =  -27817.09046479 Ry
     estimated scf accuracy    <       3.66175502 Ry

[...]

     iteration #  6     ecut=    60.00 Ry     beta= 0.70
     Davidson diagonalization with overlap
     c_bands:  1 eigenvalues not converged
     c_bands:  1 eigenvalues not converged
     ethr =  1.41E-05,  avg # of iterations = 11.2

[...]

     iteration # 10     ecut=    60.00 Ry     beta= 0.70
     Davidson diagonalization with overlap
     c_bands:  1 eigenvalues not converged
     c_bands:  1 eigenvalues not converged
     c_bands:  1 eigenvalues not converged
     c_bands:  1 eigenvalues not converged
     ethr =  4.17E-07,  avg # of iterations = 13.0

[...]

     total energy              =  -27817.39273256 Ry
     estimated scf accuracy    <       0.00000183 Ry

     iteration # 19     ecut=    60.00 Ry     beta= 0.70
     Davidson diagonalization with overlap
     ethr =  4.86E-10,  avg # of iterations =  2.3

[...]

     End of self-consistent calculation

          k = 0.0000 0.0000 0.0000 ( 90547 PWs)   bands (ev):

   -13.4356 -10.8557  -7.6837  -6.7724  -5.5635  -4.9831  -4.7797  -4.5508
    -4.3969  -4.3864  -4.3554  -4.3520  -4.3389  -4.3148  -4.2806  -4.1489
    -3.8493  -3.8255  -3.8080  -3.8019  -3.7883  -3.7783  -3.5110  -3.4160
    -3.3799  -3.3584  -3.3480  -3.3304  -3.2925  -3.1578  -3.1417  -3.1329
    -3.1101  -3.0956  -3.0869  -2.9933  -2.9497  -2.9266  -2.9225  -2.9133
    -2.8775  -2.8603  -2.8583  -2.8496  -2.8416  -2.8234  -2.7993  -2.4014
    -2.3365  -2.3337  -2.2952  -2.2927  -2.2699  -2.2546  -2.2331  -2.2106
    -2.1929  -2.0692  -2.0502  -2.0175  -1.9949  -1.9452  -1.6559  -1.5962
    -1.5547  -1.4858  -1.4727  -1.4662  -1.4207  -1.3797  -1.3390  -1.3279
    -1.2894  -1.2797  -1.2758  -1.2713  -1.2611  -1.2469  -1.2423  -1.2249
    -1.2213  -1.2041  -1.1895  -1.1704  -1.1493  -1.1421  -1.0869  -1.0697
    -1.0677  -1.0203  -0.9098  -0.8853  -0.8799  -0.8617  -0.8463  -0.8238
    -0.8153  -0.8108  -0.7773  -0.7459  -0.7412  -0.7045  -0.6831  -0.6747
    -0.6412  -0.6353  -0.6199  -0.6011  -0.5986  -0.5821  -0.4788  -0.4428
    -0.4139  -0.4138  -0.2904  -0.2647  -0.1812   0.0050   0.0122   0.0294
     0.0503   0.0554   0.0585   0.0613   0.1512   0.1536   0.1870   0.2101
     0.2334   0.2653   0.2919   0.3112   0.3432   0.3543   0.3793   0.3934
     0.4543   0.5120   0.5392   0.5465   0.5696   0.5801   0.7483   0.7541
     0.7725   0.7973   0.8024   0.8248   0.8469   0.8509   0.8850   1.0346
     1.0477   1.0518   1.1011   1.1050   1.1393   1.1646   1.1955   1.2011
     1.2192   1.2218   1.2395   1.2458   1.2533   1.2575   1.2784   1.2809
     1.2940   1.3245   1.3299   1.3573   1.3697   1.3764   1.4240   1.4258
     1.4711   1.4784   1.4790   1.5051   1.5127   1.5482   1.5650   1.5991
     1.5995   1.6134   1.6186   1.6249   1.6476   1.6668   1.6790   1.7204
     1.7410   1.7588   1.7592   1.8954   1.9092   2.0128   2.0231   2.0296
     2.0465   2.0502   2.0770   2.3615   2.4875   2.5914   2.8400   2.8998
     2.9506   2.9582   3.8392   4.1047   4.6327   5.1971   5.2189   5.2203
     5.6684   5.7500   6.0591   6.4871   6.6290   6.8476   6.8620   6.8712
     6.8964   6.9230   7.0046

[...]

          k = 0.4000-0.4619 0.0000 ( 90600 PWs)   bands (ev):

   -13.4350 -10.8561  -7.6718  -5.8291  -5.8124  -5.2182  -4.9893  -4.8691
    -4.5895  -4.4769  -4.3447  -4.0309  -4.0224  -3.8982  -3.8686  -3.7635
    -3.7505  -3.6635  -3.6353  -3.5804  -3.5553  -3.5333  -3.5081  -3.4913
    -3.4697  -3.4509  -3.4025  -3.3525  -3.3240  -3.3116  -3.2827  -3.2675
    -3.2070  -3.1263  -3.0686  -3.0556  -3.0102  -2.9626  -2.9160  -2.9029
    -2.8777  -2.8505  -2.7947  -2.7031  -2.6827  -2.5864  -2.5060  -2.4829
    -2.4339  -2.3960  -2.3287  -2.3016  -2.2299  -2.2105  -2.1559  -2.1302
    -2.0984  -2.0748  -2.0348  -2.0139  -1.9773  -1.9310  -1.8978  -1.8817
    -1.8615  -1.8475  -1.8252  -1.8086  -1.7624  -1.7387  -1.6801  -1.6399
    -1.6019  -1.5589  -1.5256  -1.4705  -1.4452  -1.4222  -1.4033  -1.3720
    -1.3520  -1.3206  -1.2993  -1.2851  -1.2370  -1.2208  -1.1828  -1.1768
    -1.1425  -1.1060  -1.0281  -1.0191  -0.9995  -0.9938  -0.9762  -0.8872
    -0.8578  -0.8214  -0.8068  -0.7884  -0.7634  -0.7394  -0.7239  -0.7016
    -0.6954  -0.6757  -0.6633  -0.6409  -0.6145  -0.5823  -0.5699  -0.5609
    -0.5442  -0.5356  -0.5141  -0.4672  -0.4229  -0.3653  -0.2949  -0.2286
    -0.1962  -0.1728  -0.1081  -0.0793  -0.0687  -0.0232  -0.0092   0.0211
     0.0366   0.0650   0.1128   0.1276   0.1620   0.1822   0.2166   0.2563
     0.3054   0.3392   0.3928   0.4293   0.4865   0.5080   0.5724   0.5971
     0.6140   0.6389   0.6688   0.6996   0.7350   0.7585   0.7792   0.7852
     0.8054   0.8500   0.8795   0.9278   0.9511   0.9620   0.9953   1.0219
     1.0513   1.1254   1.1511   1.2442   1.2798   1.3193   1.3947   1.4339
     1.4592   1.4975   1.5312   1.5587   1.6315   1.6515   1.7131   1.7336
     1.7464   1.7686   1.7925   1.8137   1.8383   1.9084   1.9222   1.9362
     1.9569   1.9666   1.9855   1.9927   2.0766   2.1242   2.1660   2.2022
     2.2179   2.2292   2.2646   2.2827   2.3890   2.4935   2.9586   3.0218
     3.2651   3.3747   3.4202   3.6246   3.7091   3.7376   3.8486   4.0031
     4.3071   4.3948   4.4371   4.5400   4.8483   4.9246   4.9606   5.0395
     5.1532   5.2491   5.2835   5.4221   5.7083   5.7553   5.8307   6.2326
     6.4092   6.4660   6.5822

     the Fermi energy is     1.9961 ev

!    total energy              =  -27817.39273262 Ry

     total all-electron energy =  -1326877.450423 Ry
     estimated scf accuracy    <       0.00000068 Ry
     smearing contrib. (-TS)   =       0.00200867 Ry
     internal energy E=F+TS    =  -27817.39474129 Ry

     The total energy is F=E-TS. E is the sum of the following terms:
     one-electron contribution =  -28038.84399149 Ry
     hartree contribution      =   14325.29811209 Ry
     xc contribution           =    -908.23907830 Ry
     ewald contribution        =   12297.99894050 Ry
     one-center paw contrib.   =  -25493.60872409 Ry

     convergence has been achieved in  19 iterations

[...]

     Forces acting on atoms (cartesian axes, Ry/au):

     atom    1 type  1   force =     0.00176577    0.00001737   -0.00482907
     atom    2 type  1   force =    -0.00006107   -0.00027425   -0.00444590
     atom    3 type  1   force =    -0.00182465    0.00004058   -0.00484526
     atom    4 type  1   force =     0.00002196    0.00018233   -0.00356766
     atom    5 type  1   force =    -0.00008978    0.00019638   -0.00354768
     atom    6 type  1   force =    -0.00004016   -0.00073223   -0.00263783
     atom    7 type  1   force =    -0.00002384   -0.00144572   -0.00568809
     atom    8 type  1   force =    -0.00056229    0.00035714   -0.00365872
     atom    9 type  1   force =     0.00046972    0.00033830   -0.00367469
     atom   10 type  1   force =    -0.00219750    0.00018379    0.00789763
     atom   11 type  1   force =     0.00213825    0.00022183    0.00789863
     atom   12 type  1   force =    -0.00003932    0.00194177   -0.00227788
     atom   13 type  1   force =    -0.00001370    0.00163808    0.00537790
     atom   14 type  1   force =    -0.00036764   -0.00147699    0.00886772
     atom   15 type  1   force =     0.00028937   -0.00147414    0.00888212
     atom   16 type  1   force =    -0.00023485   -0.00055364   -0.00404400
     atom   17 type  1   force =    -0.00005718    0.00070749    0.00780303
     atom   18 type  1   force =     0.00019992   -0.00055708   -0.00405161
     atom   19 type  1   force =     0.00005165   -0.00007362   -0.00000702
     atom   20 type  1   force =    -0.00004504   -0.00012609   -0.00012844
     atom   21 type  1   force =    -0.00012430   -0.00008953   -0.00003947
     atom   22 type  1   force =    -0.00005095   -0.00002651    0.00001692
     atom   23 type  1   force =    -0.00003572   -0.00004254    0.00003478
     atom   24 type  1   force =    -0.00002937    0.00005592    0.00009826
     atom   25 type  1   force =    -0.00006504   -0.00004665    0.00000227
     atom   26 type  1   force =    -0.00003712    0.00001702   -0.00005640
     atom   27 type  1   force =     0.00001228    0.00000507   -0.00011635
     atom   28 type  1   force =    -0.00006978    0.00006536    0.00017126
     atom   29 type  1   force =     0.00022378    0.00010261    0.00117675
     atom   30 type  1   force =    -0.00002207    0.00007847    0.00019413
     atom   31 type  1   force =    -0.00011421   -0.00004211   -0.00057344
     atom   32 type  1   force =     0.00007913   -0.00006759   -0.00058573
     atom   33 type  1   force =    -0.00005408    0.00012752   -0.00003089
     atom   34 type  1   force =    -0.00003283   -0.00004710    0.00001363
     atom   35 type  1   force =    -0.00005796   -0.00012106    0.00002524
     atom   36 type  1   force =    -0.00002355   -0.00008988    0.00002399
     atom   37 type  2   force =     0.00012494    0.00101718    0.00026820
     atom   38 type  2   force =     0.00046245   -0.00051090   -0.00053015
     atom   39 type  2   force =     0.00483894   -0.00094012    0.00497196
     atom   40 type  3   force =     0.00021735   -0.00004722   -0.00013710
     atom   41 type  3   force =    -0.00027723   -0.00004390   -0.00016871
     atom   42 type  3   force =     0.00008953   -0.00031313   -0.00011541
     atom   43 type  3   force =    -0.00019048    0.00011969   -0.00037761
     atom   44 type  3   force =    -0.00424335    0.00172812   -0.00358931

     Total force =     0.009362     Total SCF correction =     0.001486
     SCF correction compared to forces is large: reduce conv_thr to get better values

[...]

     negative rho (up, down):  1.254E-02 0.000E+00

     negative rho (up, down):  1.254E-02 0.000E+00
 BEEFens 2000 ensemble energies
             -0.608150483588361E+02
             -0.362111763445515E+01
             -0.158598688087725E+02
              0.430349303128523E+02
             -0.221558268360554E+02
             -0.205537969429299E+02
             -0.353271785363397E+02
             -0.867013453786653E+02
             -0.465499443810886E+02
             -0.473230850285941E+02
             -0.370082847990759E+02
              0.228955979051353E+01
              0.408517773644687E+01
              0.759704761090183E+01
              0.266704621959363E+01
              0.475885311171971E+02
             -0.209103503564689E+02
             -0.230195302284319E+02
              0.193654811822030E+02
             -0.112596546167557E+03
              0.537429370708402E+02
             -0.290140493771692E+02
             -0.336291902339513E+01
             -0.114192101853657E+02
             -0.881598801320729E+01
             -0.463165257617825E+01
              0.884427002973802E+02
             -0.187829935174250E+02
             -0.901118912346783E+01
             -0.519623658341066E+02
              0.816609645539595E+02
             -0.187138498091396E+02
             -0.375839796783002E+02
              0.249426081468774E+02
             -0.284972480338973E+01
              0.164911193193567E+02
             -0.483783815841571E+01
              0.107906710095084E+02
              0.289418039368376E+02
             -0.103450536673260E+03
              0.559521968934493E+02
              0.142640129284370E+02
             -0.176101777474787E+01
             -0.361986740306305E+02
              0.123475222444804E+02
             -0.147253828260162E+02
              0.399567303607547E+02
              0.365402288304944E+02
             -0.308267501126510E+02
             -0.275790784873586E+02
             -0.329200928835776E+02
             -0.352928610652105E+02
              0.137006482464922E+02
             -0.491889670070165E+02
              0.115969850238183E+02
              0.624256935504145E+02
              0.637016439777085E+02
              0.356407464357860E+02
              0.154284989063544E+02
              0.271301305642476E+02
[...]
             -0.707738345458155E+02
             -0.864993316635264E+00
             -0.246830881821930E+01
             -0.884893915059308E+01
             -0.179877667427763E+01
             -0.654016288201220E+02
             -0.210620867427680E+02
              0.542836750349363E+01
              0.903481340106430E+01
              0.469935441964346E+02
             -0.398697647869975E+02
              0.657928387542922E+02
             -0.426020186427426E+02
              0.211057648708753E+02
              0.351208165569290E+02

 BEEF-vdW xc energy contributions
           1 :   -784.130194272818
           2 :    720.251632709746
           3 :   -609.645537953876
           4 :    479.424470279156
           5 :   -357.157627161814
           6 :    262.739138487937
           7 :   -203.859704809510
           8 :    175.967538108154
           9 :   -166.310544672821
          10 :    160.144955122534
          11 :   -146.568079666830
          12 :    121.775997005168
          13 :   -88.8992893741615
          14 :    55.0496300319131
          15 :   -27.2864374661181
          16 :    9.33285258028741
          17 :  -0.314100203317366
          18 :   -4.23885688920768
          19 :    9.85771306260790
          20 :   -20.4124962525906
          21 :    36.4470814005485
          22 :   -55.2266178627482
          23 :    72.3003650453487
          24 :   -83.7240929179550
          25 :    87.8518774437631
          26 :   -85.9146060790623
          27 :    81.2169560106787
          28 :   -77.4373026839512
          29 :    76.8862077818474
          30 :   -79.5403861202072
          31 :   -86.0918602130847
          32 :   -65.9688335276322

     Writing output data file ./pwscf.save/

     General routines

     Parallel routines

   This run was terminated on:  19:42:59  20May2022

   JOB DONE.