     Program PWSCF v.6.7MaX starts on 20May2022 at 16: 5:13

     Reading input from nc3h5-ensemble.in
Warning: card &CELL ignored
Warning: card / ignored

     Current dimensions of program PWSCF are:
     Max number of different atomic species (ntypx) = 10
     Max number of k-points (npk) =  40000
     Max angular momentum in pseudopotentials (lmaxx) =  3
     file Pt.pbe-n-kjpaw_psl.1.0.0.UPF: wavefunction(s)  6S 5D renormalized
     file C.pbe-n-kjpaw_psl.1.0.0.UPF: wavefunction(s)  2S 2P renormalized
     file H.pbe-kjpaw_psl.1.0.0.UPF: wavefunction(s)  1S renormalized

     IMPORTANT: XC functional enforced from input :
     Exchange-correlation= BEEF-VDW
                           (   1   4  43  14   2   0   0)
     Any further DFT definition will be discarded
     Please, verify this is what you really want

     Subspace diagonalization in iterative solution of the eigenvalue problem:
     a serial algorithm will be used

     bravais-lattice index     =            0
     lattice parameter (alat)  =      16.0349  a.u.
     unit-cell volume          =   11203.1378 (a.u.)^3
     number of atoms/cell      =           44
     number of atomic types    =            3
     number of electrons       =       377.00
     number of Kohn-Sham states=          227
     kinetic-energy cutoff     =      60.0000  Ry
     charge density cutoff     =     240.0000  Ry
     scf convergence threshold =      1.0E-06
     mixing beta               =       0.7000
     number of iterations used =            8  local-TF  mixing
     Exchange-correlation= BEEF-VDW
                           (   1   4  43  14   2   0   0)

     celldm(1)=  16.034858  celldm(2)=   0.000000  celldm(3)=   0.000000
     celldm(4)=   0.000000  celldm(5)=   0.000000  celldm(6)=   0.000000

     crystal axes: (cart. coord. in units of alat)
               a(1) = (   1.000000   0.000000   0.000000 )
               a(2) = (   0.500000   0.866025   0.000000 )
               a(3) = (   0.000000   0.000000   3.137716 )

     reciprocal axes: (cart. coord. in units 2 pi/alat)
               b(1) = (  1.000000 -0.577350  0.000000 )
               b(2) = (  0.000000  1.154701  0.000000 )
               b(3) = (  0.000000  0.000000  0.318703 )

     PseudoPot. # 1 for Pt read from file:
     /users/bkreitz1/quantum-espresso/potentials/Pt.pbe-n-kjpaw_psl.1.0.0.UPF
     MD5 check sum: 04dc8a03c51ece93fc7b5889c2958091
     Pseudo is Projector augmented-wave + core cor, Zval = 10.0
     Generated using 'atomic' code by A. Dal Corso  v.6.7MaX
     Shape of augmentation charge: PSQ
     Using radial grid of 1277 points,  6 beta functions with:
                l(1) =   0
                l(2) =   0
                l(3) =   1
                l(4) =   1
                l(5) =   2
                l(6) =   2
     Q(r) pseudized with 0 coefficients

     PseudoPot. # 2 for C  read from file:
     /users/bkreitz1/quantum-espresso/potentials/C.pbe-n-kjpaw_psl.1.0.0.UPF
     MD5 check sum: a169b0ebad56f5ec0d79c4633f80bf22
     Pseudo is Projector augmented-wave + core cor, Zval =  4.0
     Generated using 'atomic' code by A. Dal Corso  v.6.7MaX
     Shape of augmentation charge: PSQ
     Using radial grid of 1073 points,  4 beta functions with:
                l(1) =   0
                l(2) =   0
                l(3) =   1
                l(4) =   1
     Q(r) pseudized with 0 coefficients

     PseudoPot. # 3 for H  read from file:
     /users/bkreitz1/quantum-espresso/potentials/H.pbe-kjpaw_psl.1.0.0.UPF
     MD5 check sum: ae98473e6dc62675f0d0baffdab24f65
     Pseudo is Projector augmented-wave, Zval =  1.0
     Generated using 'atomic' code by A. Dal Corso  v.6.7MaX
     Shape of augmentation charge: PSQ
     Using radial grid of  929 points,  2 beta functions with:
                l(1) =   0
                l(2) =   0
     Q(r) pseudized with 0 coefficients

     atomic species   valence    mass     pseudopotential
        Pt            10.00   195.08400     Pt( 1.00)
        C              4.00    12.01100     C ( 1.00)
        H              1.00     1.00800     H ( 1.00)

     No symmetry found

   Cartesian axes

     site n.     atom                  positions (alat units)
         1           Pt  tau(   1) = (   0.0000000   0.0000000   1.0017346  )
         2           Pt  tau(   2) = (   0.3333333   0.0000000   1.0017346  )
         3           Pt  tau(   3) = (   0.6666667   0.0000000   1.0017346  )
         4           Pt  tau(   4) = (   0.1666667   0.2886751   1.0017346  )
         5           Pt  tau(   5) = (   0.5000000   0.2886751   1.0017346  )
         6           Pt  tau(   6) = (   0.8333333   0.2886751   1.0017346  )
         7           Pt  tau(   7) = (   0.3333333   0.5773503   1.0017346  )
         8           Pt  tau(   8) = (   0.6666667   0.5773503   1.0017346  )
         9           Pt  tau(   9) = (   1.0000000   0.5773503   1.0017346  )
        10           Pt  tau(  10) = (   0.1666667   0.0962250   1.2739001  )
        11           Pt  tau(  11) = (   0.5000000   0.0962250   1.2739001  )
        12           Pt  tau(  12) = (   0.8333333   0.0962250   1.2739001  )
        13           Pt  tau(  13) = (   0.3333333   0.3849002   1.2739001  )
        14           Pt  tau(  14) = (   0.6666667   0.3849002   1.2739001  )
        15           Pt  tau(  15) = (   1.0000000   0.3849002   1.2739001  )
        16           Pt  tau(  16) = (   0.5000000   0.6735753   1.2739001  )
        17           Pt  tau(  17) = (   0.8333333   0.6735753   1.2739001  )
        18           Pt  tau(  18) = (   1.1666667   0.6735753   1.2739001  )
        19           Pt  tau(  19) = (  -0.0000546   0.1924768   1.5397954  )
        20           Pt  tau(  20) = (   0.3350334   0.1940901   1.5461823  )
        21           Pt  tau(  21) = (   0.6643920   0.1940686   1.5461931  )
        22           Pt  tau(  22) = (   0.1661264   0.4812508   1.5409868  )
        23           Pt  tau(  23) = (   0.5012821   0.4799302   1.5487356  )
        24           Pt  tau(  24) = (   0.8310726   0.4822744   1.5456053  )
        25           Pt  tau(  25) = (   0.3329753   0.7702115   1.5409333  )
        26           Pt  tau(  26) = (   0.6661625   0.7677517   1.5456263  )
        27           Pt  tau(  27) = (   0.9993109   0.7702095   1.5421221  )
        28           Pt  tau(  28) = (  -0.0013685   0.0021693   1.8158549  )
        29           Pt  tau(  29) = (   0.3319053   0.0006910   1.8158093  )
        30           Pt  tau(  30) = (   0.6655556   0.0004018   1.8153969  )
        31           Pt  tau(  31) = (   0.1638914   0.2890914   1.8158922  )
        32           Pt  tau(  32) = (   0.4980209   0.2885420   1.8389271  )
        33           Pt  tau(  33) = (   0.8362133   0.2874410   1.8136954  )
        34           Pt  tau(  34) = (   0.3279525   0.5810948   1.8121331  )
        35           Pt  tau(  35) = (   0.6667907   0.5795591   1.8360376  )
        36           Pt  tau(  36) = (   0.9990566   0.5783236   1.8157897  )
        37           C   tau(  37) = (   0.5137314   0.2885675   2.0934633  )
        38           C   tau(  38) = (   0.5149769   0.4563948   2.0949479  )
        39           C   tau(  39) = (   0.6539785   0.5533744   2.0870421  )
        40           H   tau(  40) = (   0.4076761   0.2310328   2.1359819  )
        41           H   tau(  41) = (   0.6228856   0.2282327   2.1225872  )
        42           H   tau(  42) = (   0.4024596   0.5161927   2.1090006  )
        43           H   tau(  43) = (   0.6402813   0.6722980   2.1325681  )
        44           H   tau(  44) = (   0.7637962   0.4968046   2.1214339  )

     number of k points=    13  Marzari-Vanderbilt smearing, width (Ry)=  0.0200
                       cart. coord. in units 2pi/alat
        k(    1) = (   0.0000000   0.0000000   0.0000000), wk =   0.0800000
        k(    2) = (   0.0000000   0.2309401   0.0000000), wk =   0.1600000
        k(    3) = (   0.0000000   0.4618802   0.0000000), wk =   0.1600000
        k(    4) = (   0.2000000  -0.1154701   0.0000000), wk =   0.1600000
        k(    5) = (   0.2000000   0.1154701   0.0000000), wk =   0.1600000
        k(    6) = (   0.2000000   0.3464102   0.0000000), wk =   0.1600000
        k(    7) = (   0.2000000  -0.5773503   0.0000000), wk =   0.1600000
        k(    8) = (   0.2000000  -0.3464102   0.0000000), wk =   0.1600000
        k(    9) = (   0.4000000  -0.2309401   0.0000000), wk =   0.1600000
        k(   10) = (   0.4000000  -0.0000000   0.0000000), wk =   0.1600000
        k(   11) = (   0.4000000   0.2309401   0.0000000), wk =   0.1600000
        k(   12) = (   0.4000000  -0.6928203   0.0000000), wk =   0.1600000
        k(   13) = (   0.4000000  -0.4618802   0.0000000), wk =   0.1600000

     Check: negative core charge=   -0.000002

     Initial potential from superposition of free atoms

     starting charge  376.99372, renormalised to  377.00000

     negative rho (up, down):  1.106E-02 0.000E+00

     %%%%%%%%%%%%%%%%%%%%%%%%%%%%%%%%%%%%%%%%%%%%%%%%%%%%%%%%%%%%%%%%%%%%%%%%
     %                                                                      %
     % You are using vdW-DF, which was implemented by the Thonhauser group. %
     % Please cite the following two papers that made this development      %
     % possible and the two reviews that describe the various versions:     %
     %                                                                      %
     %   T. Thonhauser et al., PRL 115, 136402 (2015).                      %
     %   T. Thonhauser et al., PRB 76, 125112 (2007).                       %
     %   K. Berland et al., Rep. Prog. Phys. 78, 066501 (2015).             %
     %   D.C. Langreth et al., J. Phys.: Condens. Matter 21, 084203 (2009). %
     %                                                                      %
     %                                                                      %
     % If you are calculating the stress with vdW-DF, please also cite:     %
     %                                                                      %
     %   R. Sabatini et al., J. Phys.: Condens. Matter 24, 424209 (2012).   %
     %                                                                      %
     %%%%%%%%%%%%%%%%%%%%%%%%%%%%%%%%%%%%%%%%%%%%%%%%%%%%%%%%%%%%%%%%%%%%%%%%

     Starting wfcs are  341 randomized atomic wfcs
     Checking if some PAW data can be deallocated...

     Self-consistent Calculation

     iteration #  1     ecut=    60.00 Ry     beta= 0.70
     Davidson diagonalization with overlap
     ethr =  1.00E-02,  avg # of iterations =  2.5

     Threshold (ethr) on eigenvalues was too large:
     Diagonalizing with lowered threshold

     Davidson diagonalization with overlap
     ethr =  9.63E-04,  avg # of iterations =  2.2

[...]

     total energy              =  -27817.04724003 Ry
     estimated scf accuracy    <       3.87438528 Ry

[...]

     iteration #  6     ecut=    60.00 Ry     beta= 0.70
     Davidson diagonalization with overlap
     c_bands:  1 eigenvalues not converged
     c_bands:  1 eigenvalues not converged
     c_bands:  1 eigenvalues not converged
     ethr =  1.72E-05,  avg # of iterations = 15.7

[...]

     iteration # 11     ecut=    60.00 Ry     beta= 0.70
     Davidson diagonalization with overlap
     c_bands:  1 eigenvalues not converged
     ethr =  5.42E-07,  avg # of iterations =  6.0

[...]

     total energy              =  -27817.39870544 Ry
     estimated scf accuracy    <       0.00000149 Ry

     iteration # 20     ecut=    60.00 Ry     beta= 0.70
     Davidson diagonalization with overlap
     ethr =  3.96E-10,  avg # of iterations =  1.1

[...]

     End of self-consistent calculation

          k = 0.0000 0.0000 0.0000 ( 88025 PWs)   bands (ev):

   -13.7482 -10.7682  -7.6948  -6.5089  -5.5369  -5.2561  -4.4184  -4.2263
    -4.1212  -4.1060  -4.0931  -4.0910  -4.0727  -4.0600  -4.0537  -3.6797
    -3.5640  -3.5520  -3.5353  -3.5294  -3.5206  -3.3834  -3.2141  -3.0915
    -3.0835  -3.0791  -3.0751  -3.0490  -3.0000  -2.8824  -2.8611  -2.8566
    -2.8476  -2.8464  -2.7372  -2.6585  -2.6490  -2.6443  -2.6342  -2.6271
    -2.6247  -2.5976  -2.5898  -2.5743  -2.5711  -2.5601  -2.5271  -2.3893
    -2.0400  -2.0082  -2.0054  -1.9872  -1.9808  -1.9646  -1.9293  -1.9258
    -1.9023  -1.8960  -1.8341  -1.7658  -1.7388  -1.6855  -1.3070  -1.2797
    -1.2042  -1.1936  -1.1892  -1.1619  -1.1415  -1.1129  -1.0313  -1.0223
    -1.0055  -1.0039  -0.9962  -0.9826  -0.9806  -0.9719  -0.9392  -0.9336
    -0.9231  -0.9085  -0.8890  -0.8772  -0.8713  -0.8230  -0.7914  -0.7810
    -0.7677  -0.7249  -0.6250  -0.6014  -0.5952  -0.5646  -0.5601  -0.5435
    -0.5333  -0.5260  -0.5209  -0.4730  -0.4550  -0.4424  -0.4349  -0.3469
    -0.3440  -0.3234  -0.3036  -0.3003  -0.2685  -0.2384  -0.1710  -0.1632
    -0.1600  -0.1436   0.0520   0.1217   0.2592   0.2820   0.3085   0.3170
     0.3457   0.3515   0.3637   0.3935   0.3987   0.4401   0.4574   0.4727
     0.5033   0.5126   0.6147   0.6214   0.6362   0.7051   0.7229   0.7446
     0.7576   0.7678   0.8317   0.8400   0.8421   0.8474   1.0347   1.0566
     1.0741   1.0795   1.0838   1.1036   1.1484   1.1492   1.3206   1.3398
     1.3445   1.3526   1.3711   1.4031   1.4722   1.4841   1.5030   1.5201
     1.5227   1.5319   1.5447   1.5506   1.5561   1.5665   1.5869   1.6042
     1.6226   1.6262   1.6623   1.6724   1.6817   1.6901   1.6964   1.7589
     1.7609   1.7690   1.7790   1.7938   1.8102   1.8401   1.8439   1.9017
     1.9078   1.9088   1.9288   1.9379   1.9452   1.9499   1.9953   2.0240
     2.0253   2.0574   2.0593   2.2191   2.2213   2.3074   2.3311   2.3473
     2.3592   2.3694   2.3791   2.4649   2.5868   3.1122   3.1881   3.2083
     3.2336   3.2552   4.0681   4.2175   5.1801   5.4674   5.5210   5.5413
     5.5605   5.9546   6.1821   6.6993   6.8537   7.1153   7.1409   7.1612
     7.1810   7.1832   7.2176

[...]

          k = 0.4000-0.4619 0.0000 ( 87928 PWs)   bands (ev):

   -13.7479 -10.7689  -7.6958  -5.5796  -5.5297  -5.5113  -4.9326  -4.4216
    -4.3954  -4.3182  -3.8419  -3.7806  -3.6393  -3.5997  -3.5314  -3.4914
    -3.4706  -3.3979  -3.3582  -3.3071  -3.2778  -3.2481  -3.2394  -3.2282
    -3.2062  -3.1798  -3.1172  -3.0815  -3.0403  -3.0192  -3.0000  -2.9860
    -2.9015  -2.8315  -2.8118  -2.7755  -2.6720  -2.6568  -2.6488  -2.6238
    -2.6049  -2.5387  -2.5237  -2.4342  -2.4057  -2.3696  -2.2329  -2.2025
    -2.1537  -2.1079  -2.0734  -2.0218  -2.0071  -1.9088  -1.8744  -1.8346
    -1.8254  -1.7962  -1.7434  -1.7205  -1.6967  -1.6338  -1.5996  -1.5895
    -1.5839  -1.5558  -1.5405  -1.5300  -1.5173  -1.4400  -1.3886  -1.3716
    -1.3123  -1.3043  -1.2305  -1.1933  -1.1623  -1.1363  -1.1010  -1.0865
    -1.0723  -1.0337  -0.9950  -0.9802  -0.9618  -0.9340  -0.8905  -0.8805
    -0.8491  -0.7915  -0.7578  -0.7309  -0.7073  -0.7003  -0.6568  -0.5942
    -0.5617  -0.5367  -0.5090  -0.4996  -0.4615  -0.4513  -0.4278  -0.4109
    -0.4032  -0.3905  -0.3664  -0.3392  -0.3173  -0.3042  -0.2845  -0.2715
    -0.2586  -0.2395  -0.2177  -0.2004  -0.1476  -0.0820   0.0239   0.0695
     0.1021   0.1284   0.2048   0.2293   0.2640   0.2701   0.2915   0.3172
     0.3557   0.3765   0.4088   0.4435   0.4618   0.4954   0.5100   0.5338
     0.6046   0.6239   0.6841   0.7844   0.7969   0.8264   0.8591   0.8698
     0.9250   0.9590   0.9727   1.0124   1.0260   1.0351   1.0679   1.1004
     1.1155   1.1920   1.2089   1.2305   1.2541   1.2669   1.2937   1.3112
     1.3999   1.4066   1.4491   1.5377   1.5949   1.6332   1.7155   1.7414
     1.7582   1.7935   1.8519   1.8599   1.9289   1.9573   2.0156   2.0338
     2.0587   2.0797   2.0906   2.1121   2.1540   2.2075   2.2284   2.2332
     2.2629   2.2715   2.2834   2.2920   2.3716   2.4375   2.4723   2.4921
     2.5084   2.5246   2.5386   2.5840   2.6956   2.7195   2.8880   3.3935
     3.6624   3.6655   3.7618   3.9104   4.0330   4.0537   4.1148   4.3488
     4.6048   4.6963   4.7388   4.9906   5.1343   5.2124   5.2701   5.3348
     5.4049   5.5037   5.5730   5.7764   5.9750   6.0924   6.1222   6.3171
     6.5549   6.6998   6.7731

     the Fermi energy is     2.2930 ev

!    total energy              =  -27817.39870468 Ry

     total all-electron energy =  -1326877.456395 Ry
     estimated scf accuracy    <       0.00000068 Ry
     smearing contrib. (-TS)   =       0.00159429 Ry
     internal energy E=F+TS    =  -27817.40029897 Ry

     The total energy is F=E-TS. E is the sum of the following terms:
     one-electron contribution =  -26369.54146367 Ry
     hartree contribution      =   13494.59926488 Ry
     xc contribution           =    -908.28440315 Ry
     ewald contribution        =   11459.44160978 Ry
     one-center paw contrib.   =  -25493.61530681 Ry

     convergence has been achieved in  20 iterations

[...]

     Forces acting on atoms (cartesian axes, Ry/au):

     atom    1 type  1   force =     0.00055462    0.00087072   -0.00782172
     atom    2 type  1   force =    -0.00121821    0.00073607   -0.00275370
     atom    3 type  1   force =     0.00084177    0.00021181   -0.00297115
     atom    4 type  1   force =    -0.00023344   -0.00091323   -0.00724524
     atom    5 type  1   force =    -0.00040689   -0.00001533   -0.00342568
     atom    6 type  1   force =     0.00078502   -0.00060452   -0.00340453
     atom    7 type  1   force =     0.00035646   -0.00013906   -0.00306684
     atom    8 type  1   force =    -0.00025817    0.00047901   -0.00340901
     atom    9 type  1   force =     0.00027066   -0.00063414   -0.00299934
     atom   10 type  1   force =     0.00100618   -0.00015749   -0.00005657
     atom   11 type  1   force =    -0.00023686    0.00223577    0.00760312
     atom   12 type  1   force =    -0.00049319    0.00010866    0.00019862
     atom   13 type  1   force =     0.00153621   -0.00119323    0.00462549
     atom   14 type  1   force =    -0.00177445    0.00080716    0.01227732
     atom   15 type  1   force =    -0.00019266    0.00025550   -0.00075250
     atom   16 type  1   force =     0.00176835   -0.00027470    0.00460829
     atom   17 type  1   force =    -0.00180167   -0.00067991    0.00724166
     atom   18 type  1   force =    -0.00046798    0.00026085   -0.00038431
     atom   19 type  1   force =    -0.00010074    0.00006698    0.00011178
     atom   20 type  1   force =     0.00012217    0.00014516    0.00029175
     atom   21 type  1   force =    -0.00021825    0.00009374    0.00025235
     atom   22 type  1   force =    -0.00002952    0.00009224    0.00017346
     atom   23 type  1   force =    -0.00001946    0.00001671    0.00011308
     atom   24 type  1   force =    -0.00015591    0.00014501    0.00028394
     atom   25 type  1   force =    -0.00008757    0.00002793    0.00014613
     atom   26 type  1   force =    -0.00007239   -0.00006259    0.00028919
     atom   27 type  1   force =    -0.00001650    0.00006237    0.00007603
     atom   28 type  1   force =     0.00005703   -0.00003190    0.00017514
     atom   29 type  1   force =    -0.00012733    0.00010072    0.00007913
     atom   30 type  1   force =    -0.00001513    0.00018630    0.00007984
     atom   31 type  1   force =     0.00010265   -0.00001099    0.00020657
     atom   32 type  1   force =    -0.00012836   -0.00003901   -0.00009735
     atom   33 type  1   force =    -0.00018443    0.00009342   -0.00010021
     atom   34 type  1   force =    -0.00006362    0.00001212   -0.00018339
     atom   35 type  1   force =    -0.00013035    0.00014351   -0.00006307
     atom   36 type  1   force =    -0.00013552   -0.00003876    0.00015659
     atom   37 type  2   force =     0.00079944   -0.00095746    0.00114399
     atom   38 type  2   force =    -0.00056968   -0.00168789   -0.00115652
     atom   39 type  2   force =     0.00083247   -0.00014656   -0.00005732
     atom   40 type  3   force =     0.00050369   -0.00009313   -0.00013278
     atom   41 type  3   force =    -0.00035745    0.00025971   -0.00008862
     atom   42 type  3   force =    -0.00004884    0.00007125   -0.00010654
     atom   43 type  3   force =     0.00018041   -0.00000827    0.00003576
     atom   44 type  3   force =    -0.00017256    0.00020545    0.00010718

     Total force =     0.003108     Total SCF correction =     0.001954
     SCF correction compared to forces is large: reduce conv_thr to get better values

[...]

     negative rho (up, down):  1.218E-02 0.000E+00

     negative rho (up, down):  1.218E-02 0.000E+00
 BEEFens 2000 ensemble energies
             -0.608347016121278E+02
             -0.362025228199045E+01
             -0.158628052684547E+02
              0.430307431247057E+02
             -0.221585205494451E+02
             -0.205578224272589E+02
             -0.353336533298973E+02
             -0.867099322911279E+02
             -0.465539186217449E+02
             -0.473008988349271E+02
             -0.370162087791954E+02
              0.230989152165739E+01
              0.409779031183984E+01
              0.759174018637179E+01
              0.266255168897570E+01
              0.475904584377057E+02
             -0.209015847846295E+02
             -0.230103462891152E+02
              0.193691148026930E+02
             -0.112614409562653E+03
              0.537493658025401E+02
             -0.290038896137529E+02
             -0.334941810600318E+01
             -0.114116648304928E+02
             -0.881195445666572E+01
             -0.461532514745326E+01
              0.884483347993352E+02
             -0.187892857166887E+02
             -0.900875545357621E+01
             -0.519737831822893E+02
              0.816495960468892E+02
             -0.187065592349188E+02
             -0.375751526107954E+02
              0.249414714246882E+02
             -0.284206574656622E+01
              0.165034491947664E+02
             -0.482896176383088E+01
              0.107890127845769E+02
              0.289696962419682E+02
             -0.103446016179857E+03
              0.559537212080619E+02
              0.142735314059403E+02
             -0.176400844807142E+01
             -0.362044794693300E+02
              0.123440787445326E+02
             -0.147307211746289E+02
              0.399514822320843E+02
              0.365418972793020E+02
             -0.308152871897422E+02
             -0.275775108922809E+02
             -0.329239966484696E+02
             -0.353015696509545E+02
              0.137242966447554E+02
             -0.491905878218273E+02
              0.115993396771393E+02
              0.624545549741474E+02
              0.637179258039918E+02
              0.356463792083914E+02
              0.154220562929906E+02
              0.271442723184579E+02
[...]
             -0.707836449575012E+02
             -0.862550174473768E+00
             -0.247806648570176E+01
             -0.884898366405525E+01
             -0.179579449624634E+01
             -0.653981745758822E+02
             -0.210442406957463E+02
              0.543870075568919E+01
              0.905280371669235E+01
              0.469961224880848E+02
             -0.398739277503668E+02
              0.657900829007484E+02
             -0.425988487972378E+02
              0.211145480130295E+02
              0.351192436129262E+02

 BEEF-vdW xc energy contributions
           1 :   -784.167698402750
           2 :    720.272487777337
           3 :   -609.623227843135
           4 :    479.341529507896
           5 :   -357.020235904955
           6 :    262.577866266088
           7 :   -203.726826826083
           8 :    175.924678613960
           9 :   -166.404541677572
          10 :    160.381095337965
          11 :   -146.899038016833
          12 :    122.116485913722
          13 :   -89.1587737496455
          14 :    55.1718972685707
          15 :   -27.2753375325751
          16 :    9.25084410785200
          17 :  -0.252697871765918
          18 :   -4.20286874523151
          19 :    9.69791905371210
          20 :   -20.1661071921106
          21 :    36.2002160965006
          22 :   -55.0755684954999
          23 :    72.3047200264313
          24 :   -83.8778719480007
          25 :    88.0879725543483
          26 :   -86.1350350542016
          27 :    81.3357366328943
          28 :   -77.4182492004246
          29 :    76.7539417693754
          30 :   -79.3578797792115
          31 :   -86.0934719516478
          32 :   -65.9652565891600

     Writing output data file ./pwscf.save/

     General routines

     Parallel routines

   This run was terminated on:  20: 4:38  20May2022

   JOB DONE.