     Program PWSCF v.6.7MaX starts on 20Dec2022 at 15:55:10

     Reading input from o-ensemble.in
Warning: card &CELL ignored
Warning: card / ignored

     Current dimensions of program PWSCF are:
     Max number of different atomic species (ntypx) = 10
     Max number of k-points (npk) =  40000
     Max angular momentum in pseudopotentials (lmaxx) =  3
     file Pt.pbe-n-kjpaw_psl.1.0.0.UPF: wavefunction(s)  6S 5D renormalized
     file O.pbe-nl-kjpaw_psl.1.0.0.UPF: wavefunction(s)  2S 2P renormalized

     IMPORTANT: XC functional enforced from input :
     Exchange-correlation= BEEF-VDW
                           (   1   4  43  14   2   0   0)
     Any further DFT definition will be discarded
     Please, verify this is what you really want

     Subspace diagonalization in iterative solution of the eigenvalue problem:
     a serial algorithm will be used

     bravais-lattice index     =            0
     lattice parameter (alat)  =      16.0349  a.u.
     unit-cell volume          =   10542.6664 (a.u.)^3
     number of atoms/cell      =           37
     number of atomic types    =            2
     number of electrons       =       366.00
     number of Kohn-Sham states=          220
     kinetic-energy cutoff     =      60.0000  Ry
     charge density cutoff     =     240.0000  Ry
     scf convergence threshold =      1.0E-06
     mixing beta               =       0.7000
     number of iterations used =            8  local-TF  mixing
     Exchange-correlation= BEEF-VDW
                           (   1   4  43  14   2   0   0)

     celldm(1)=  16.034858  celldm(2)=   0.000000  celldm(3)=   0.000000
     celldm(4)=   0.000000  celldm(5)=   0.000000  celldm(6)=   0.000000

     crystal axes: (cart. coord. in units of alat)
               a(1) = (   1.000000   0.000000   0.000000 )
               a(2) = (   0.500000   0.866025   0.000000 )
               a(3) = (   0.000000   0.000000   2.952735 )

     reciprocal axes: (cart. coord. in units 2 pi/alat)
               b(1) = (  1.000000 -0.577350  0.000000 )
               b(2) = (  0.000000  1.154701  0.000000 )
               b(3) = (  0.000000  0.000000  0.338669 )

     PseudoPot. # 1 for Pt read from file:
     /users/bkreitz1/quantum-espresso/potentials/Pt.pbe-n-kjpaw_psl.1.0.0.UPF
     MD5 check sum: 04dc8a03c51ece93fc7b5889c2958091
     Pseudo is Projector augmented-wave + core cor, Zval = 10.0
     Generated using 'atomic' code by A. Dal Corso  v.6.7MaX
     Shape of augmentation charge: PSQ
     Using radial grid of 1277 points,  6 beta functions with:
                l(1) =   0
                l(2) =   0
                l(3) =   1
                l(4) =   1
                l(5) =   2
                l(6) =   2
     Q(r) pseudized with 0 coefficients

     PseudoPot. # 2 for O  read from file:
     /users/bkreitz1/quantum-espresso/potentials/O.pbe-nl-kjpaw_psl.1.0.0.UPF
     MD5 check sum: eef08af8b58d9ec80f8fdb78829eb7cf
     Pseudo is Projector augmented-wave + core cor, Zval =  6.0
     Generated using 'atomic' code by A. Dal Corso  v.6.7MaX
     Shape of augmentation charge: PSQ
     Using radial grid of 1095 points,  4 beta functions with:
                l(1) =   0
                l(2) =   0
                l(3) =   1
                l(4) =   1
     Q(r) pseudized with 0 coefficients

     atomic species   valence    mass     pseudopotential
        Pt            10.00   195.08400     Pt( 1.00)
        O              6.00    15.99900     O ( 1.00)

     No symmetry found

   Cartesian axes

     site n.     atom                  positions (alat units)
         1           Pt  tau(   1) = (   0.0000000   0.0000000   1.0017346  )
         2           Pt  tau(   2) = (   0.3333333   0.0000000   1.0017346  )
         3           Pt  tau(   3) = (   0.6666667   0.0000000   1.0017346  )
         4           Pt  tau(   4) = (   0.1666667   0.2886751   1.0017346  )
         5           Pt  tau(   5) = (   0.5000000   0.2886751   1.0017346  )
         6           Pt  tau(   6) = (   0.8333333   0.2886751   1.0017346  )
         7           Pt  tau(   7) = (   0.3333333   0.5773503   1.0017346  )
         8           Pt  tau(   8) = (   0.6666667   0.5773503   1.0017346  )
         9           Pt  tau(   9) = (   1.0000000   0.5773503   1.0017346  )
        10           Pt  tau(  10) = (   0.1666667   0.0962250   1.2739001  )
        11           Pt  tau(  11) = (   0.5000000   0.0962250   1.2739001  )
        12           Pt  tau(  12) = (   0.8333333   0.0962250   1.2739001  )
        13           Pt  tau(  13) = (   0.3333333   0.3849002   1.2739001  )
        14           Pt  tau(  14) = (   0.6666667   0.3849002   1.2739001  )
        15           Pt  tau(  15) = (   1.0000000   0.3849002   1.2739001  )
        16           Pt  tau(  16) = (   0.5000000   0.6735753   1.2739001  )
        17           Pt  tau(  17) = (   0.8333333   0.6735753   1.2739001  )
        18           Pt  tau(  18) = (   1.1666667   0.6735753   1.2739001  )
        19           Pt  tau(  19) = (   0.0008649   0.1919370   1.5439456  )
        20           Pt  tau(  20) = (   0.3324497   0.1919359   1.5439541  )
        21           Pt  tau(  21) = (   0.6666511   0.1922468   1.5415842  )
        22           Pt  tau(  22) = (   0.1666587   0.4790570   1.5457108  )
        23           Pt  tau(  23) = (   0.4998189   0.4812118   1.5415807  )
        24           Pt  tau(  24) = (   0.8334859   0.4812139   1.5415754  )
        25           Pt  tau(  25) = (   0.3351127   0.7708274   1.5457157  )
        26           Pt  tau(  26) = (   0.6666563   0.7708065   1.5439455  )
        27           Pt  tau(  27) = (   0.9982055   0.7708278   1.5457141  )
        28           Pt  tau(  28) = (  -0.0117270  -0.0067687   1.8249959  )
        29           Pt  tau(  29) = (   0.3450185  -0.0067669   1.8249933  )
        30           Pt  tau(  30) = (   0.6666488  -0.0002956   1.8178516  )
        31           Pt  tau(  31) = (   0.1666471   0.3021752   1.8249950  )
        32           Pt  tau(  32) = (   0.5021795   0.2899318   1.8142791  )
        33           Pt  tau(  33) = (   0.8311091   0.2899366   1.8142821  )
        34           Pt  tau(  34) = (   0.3330676   0.5774819   1.8178505  )
        35           Pt  tau(  35) = (   0.6666469   0.5747921   1.8142810  )
        36           Pt  tau(  36) = (   1.0002188   0.5774754   1.8178526  )
        37           O   tau(  37) = (   0.1666391   0.0962108   1.9542138  )

     number of k points=    13  Marzari-Vanderbilt smearing, width (Ry)=  0.0200
                       cart. coord. in units 2pi/alat
        k(    1) = (   0.0000000   0.0000000   0.0000000), wk =   0.0800000
        k(    2) = (   0.0000000   0.2309401   0.0000000), wk =   0.1600000
        k(    3) = (   0.0000000   0.4618802   0.0000000), wk =   0.1600000
        k(    4) = (   0.2000000  -0.1154701   0.0000000), wk =   0.1600000
        k(    5) = (   0.2000000   0.1154701   0.0000000), wk =   0.1600000
        k(    6) = (   0.2000000   0.3464102   0.0000000), wk =   0.1600000
        k(    7) = (   0.2000000  -0.5773503   0.0000000), wk =   0.1600000
        k(    8) = (   0.2000000  -0.3464102   0.0000000), wk =   0.1600000
        k(    9) = (   0.4000000  -0.2309401   0.0000000), wk =   0.1600000
        k(   10) = (   0.4000000  -0.0000000   0.0000000), wk =   0.1600000
        k(   11) = (   0.4000000   0.2309401   0.0000000), wk =   0.1600000
        k(   12) = (   0.4000000  -0.6928203   0.0000000), wk =   0.1600000
        k(   13) = (   0.4000000  -0.4618802   0.0000000), wk =   0.1600000

     Initial potential from superposition of free atoms

     starting charge  365.99389, renormalised to  366.00000

     negative rho (up, down):  1.192E-02 0.000E+00

     %%%%%%%%%%%%%%%%%%%%%%%%%%%%%%%%%%%%%%%%%%%%%%%%%%%%%%%%%%%%%%%%%%%%%%%%
     %                                                                      %
     % You are using vdW-DF, which was implemented by the Thonhauser group. %
     % Please cite the following two papers that made this development      %
     % possible and the two reviews that describe the various versions:     %
     %                                                                      %
     %   T. Thonhauser et al., PRL 115, 136402 (2015).                      %
     %   T. Thonhauser et al., PRB 76, 125112 (2007).                       %
     %   K. Berland et al., Rep. Prog. Phys. 78, 066501 (2015).             %
     %   D.C. Langreth et al., J. Phys.: Condens. Matter 21, 084203 (2009). %
     %                                                                      %
     %                                                                      %
     % If you are calculating the stress with vdW-DF, please also cite:     %
     %                                                                      %
     %   R. Sabatini et al., J. Phys.: Condens. Matter 24, 424209 (2012).   %
     %                                                                      %
     %%%%%%%%%%%%%%%%%%%%%%%%%%%%%%%%%%%%%%%%%%%%%%%%%%%%%%%%%%%%%%%%%%%%%%%%

     Starting wfcs are  328 randomized atomic wfcs
     Checking if some PAW data can be deallocated...

     Self-consistent Calculation

     iteration #  1     ecut=    60.00 Ry     beta= 0.70
     Davidson diagonalization with overlap
     ethr =  1.00E-02,  avg # of iterations =  2.0

     Threshold (ethr) on eigenvalues was too large:
     Diagonalizing with lowered threshold

     Davidson diagonalization with overlap
     ethr =  5.52E-04,  avg # of iterations =  4.0

[...]

     total energy              =  -27796.32963422 Ry
     estimated scf accuracy    <       2.18428657 Ry

[...]

     iteration #  6     ecut=    60.00 Ry     beta= 0.70
     Davidson diagonalization with overlap
     c_bands:  1 eigenvalues not converged
     c_bands:  1 eigenvalues not converged
     c_bands:  1 eigenvalues not converged
     ethr =  9.93E-06,  avg # of iterations =  9.8

[...]

     iteration #  7     ecut=    60.00 Ry     beta= 0.70
     Davidson diagonalization with overlap
     c_bands:  1 eigenvalues not converged
     ethr =  2.23E-06,  avg # of iterations = 11.1

[...]

     total energy              =  -27796.70107967 Ry
     estimated scf accuracy    <       0.00000144 Ry

     iteration # 17     ecut=    60.00 Ry     beta= 0.70
     Davidson diagonalization with overlap
     ethr =  3.93E-10,  avg # of iterations =  2.0

[...]

     End of self-consistent calculation

          k = 0.0000 0.0000 0.0000 ( 82785 PWs)   bands (ev):

   -17.1078  -6.6483  -5.3699  -4.4831  -4.4830  -4.3894  -4.2433  -4.2380
    -4.2280  -4.2280  -4.2100  -4.0667  -4.0666  -3.7357  -3.6943  -3.6942
    -3.6818  -3.5930  -3.5930  -3.4771  -3.2491  -3.2491  -3.2081  -3.0747
    -3.0747  -3.0521  -3.0222  -3.0221  -2.9960  -2.9315  -2.9315  -2.8906
    -2.8105  -2.8105  -2.7667  -2.7512  -2.7511  -2.7502  -2.7311  -2.7103
    -2.7103  -2.5177  -2.5176  -2.2764  -2.2149  -2.1509  -2.1509  -2.1175
    -2.1174  -2.1025  -2.1025  -2.0746  -2.0427  -1.9087  -1.9087  -1.8215
    -1.8215  -1.8166  -1.4180  -1.4179  -1.3481  -1.3480  -1.3105  -1.2831
    -1.2671  -1.2011  -1.2010  -1.1535  -1.1535  -1.1418  -1.1333  -1.1104
    -1.1104  -1.1052  -1.0849  -1.0645  -1.0645  -1.0373  -1.0373  -1.0296
    -0.9458  -0.9457  -0.9327  -0.9326  -0.9120  -0.8937  -0.7619  -0.7447
    -0.7446  -0.7071  -0.7071  -0.6870  -0.6649  -0.6648  -0.6582  -0.5986
    -0.5985  -0.5033  -0.5033  -0.4475  -0.4474  -0.4474  -0.4418  -0.3827
    -0.3315  -0.3315  -0.2863  -0.2727  -0.2726  -0.2294  -0.1821   0.1217
     0.1218   0.1396   0.1705   0.1705   0.2094   0.2094   0.2135   0.2962
     0.3574   0.3574   0.3829   0.3829   0.4136   0.4476   0.4476   0.4754
     0.5445   0.6512   0.6512   0.6607   0.6886   0.6889   0.7206   0.7206
     0.8625   0.9440   0.9441   0.9531   0.9995   0.9995   1.0275   1.0275
     1.0498   1.0679   1.0679   1.1815   1.2068   1.2118   1.2118   1.3189
     1.3190   1.3687   1.3805   1.3805   1.4003   1.4095   1.4095   1.4116
     1.4329   1.4329   1.4595   1.5186   1.5187   1.5281   1.5281   1.5352
     1.6094   1.6094   1.6099   1.6284   1.6284   1.6726   1.6726   1.6985
     1.7542   1.7588   1.7588   1.7816   1.7890   1.7890   1.8494   1.8494
     1.8811   1.8811   1.9042   1.9127   2.0036   2.0036   2.0516   2.1465
     2.1467   2.1735   2.2193   2.2193   2.2218   2.4266   2.4266   2.7384
     3.0989   3.0990   3.1010   3.1177   3.4314   3.4315   4.4967   5.4309
     5.4310   5.4412   5.6045   5.6046   6.0235   7.0240   7.0241   7.0254
     7.0863   7.1009   7.1009   7.1706

[...]

          k = 0.4000-0.4619 0.0000 ( 82726 PWs)   bands (ev):

   -17.1073  -5.7137  -5.6771  -5.1054  -4.6192  -4.4559  -4.2309  -4.1018
    -3.9208  -3.8394  -3.7765  -3.7090  -3.6957  -3.6294  -3.6027  -3.5093
    -3.5037  -3.4127  -3.3934  -3.3724  -3.3584  -3.3383  -3.3124  -3.2574
    -3.1890  -3.1846  -3.1744  -3.1564  -3.1019  -3.0252  -2.9313  -2.9137
    -2.8752  -2.8252  -2.7805  -2.7612  -2.7115  -2.6947  -2.6271  -2.5635
    -2.5523  -2.3935  -2.3640  -2.3329  -2.2901  -2.2456  -2.2248  -2.1734
    -2.0904  -2.0458  -2.0011  -1.9765  -1.9501  -1.9181  -1.8859  -1.8556
    -1.8381  -1.7921  -1.7728  -1.7471  -1.7128  -1.7031  -1.6812  -1.6540
    -1.6116  -1.6080  -1.5367  -1.4706  -1.4460  -1.4298  -1.3740  -1.2930
    -1.2824  -1.2716  -1.2537  -1.2221  -1.1957  -1.1724  -1.1242  -1.1031
    -1.0637  -1.0222  -1.0100  -0.9920  -0.9091  -0.8818  -0.8741  -0.8609
    -0.8362  -0.7554  -0.7394  -0.7223  -0.6725  -0.6671  -0.6307  -0.6075
    -0.5903  -0.5765  -0.5610  -0.5323  -0.5209  -0.4945  -0.4731  -0.4538
    -0.4381  -0.4302  -0.4126  -0.3995  -0.3760  -0.3503  -0.3415  -0.1674
    -0.1406  -0.1230  -0.0822  -0.0110   0.0502   0.0991   0.1123   0.1383
     0.1640   0.1773   0.2013   0.2112   0.2361   0.2541   0.3020   0.3526
     0.4032   0.4345   0.4572   0.4773   0.4830   0.5381   0.5941   0.6543
     0.7010   0.7198   0.7773   0.8075   0.8295   0.8441   0.8762   0.8922
     0.9163   0.9468   0.9856   1.0082   1.0490   1.0824   1.1009   1.1160
     1.1717   1.1768   1.2200   1.2846   1.3502   1.4075   1.4463   1.5114
     1.5331   1.5642   1.5908   1.6566   1.6667   1.7118   1.7377   1.8005
     1.8443   1.8813   1.9057   1.9260   1.9477   1.9909   1.9982   2.0093
     2.0553   2.0759   2.0957   2.1382   2.1550   2.1718   2.1934   2.2312
     2.2563   2.3384   2.3628   2.3684   2.4165   2.4356   2.4566   2.5718
     2.6019   2.7676   3.0161   3.5239   3.5417   3.7881   3.7984   3.8444
     3.9291   4.0729   4.1601   4.4845   4.5503   4.5945   5.0044   5.0194
     5.1410   5.2168   5.2941   5.4103   5.5571   5.6434   5.7109   5.9295
     6.0853   6.4173   6.6005   6.6573

     the Fermi energy is     2.1519 ev

!    total energy              =  -27796.70107900 Ry

     total all-electron energy =  -1326792.313395 Ry
     estimated scf accuracy    <       0.00000030 Ry
     smearing contrib. (-TS)   =       0.00366241 Ry
     internal energy E=F+TS    =  -27796.70474141 Ry

     The total energy is F=E-TS. E is the sum of the following terms:
     one-electron contribution =  -23214.39068062 Ry
     hartree contribution      =   11912.08270052 Ry
     xc contribution           =    -897.67882274 Ry
     ewald contribution        =    9887.41877247 Ry
     one-center paw contrib.   =  -25484.13671104 Ry

     convergence has been achieved in  17 iterations

[...]

     Forces acting on atoms (cartesian axes, Ry/au):

     atom    1 type  1   force =    -0.00014013   -0.00007714   -0.00306195
     atom    2 type  1   force =     0.00014382   -0.00007963   -0.00304215
     atom    3 type  1   force =     0.00000326    0.00036776   -0.00423797
     atom    4 type  1   force =     0.00000510    0.00016301   -0.00303744
     atom    5 type  1   force =     0.00068953    0.00040008   -0.00412939
     atom    6 type  1   force =    -0.00068941    0.00039559   -0.00413780
     atom    7 type  1   force =     0.00031980   -0.00018610   -0.00424965
     atom    8 type  1   force =    -0.00000032   -0.00080008   -0.00414409
     atom    9 type  1   force =    -0.00030780   -0.00018393   -0.00424564
     atom   10 type  1   force =     0.00000151    0.00000431    0.00588619
     atom   11 type  1   force =     0.00063143   -0.00188252    0.00263012
     atom   12 type  1   force =    -0.00065570   -0.00188327    0.00262035
     atom   13 type  1   force =    -0.00131570    0.00148762    0.00263193
     atom   14 type  1   force =    -0.00000610   -0.00000838   -0.00069722
     atom   15 type  1   force =     0.00131007    0.00149685    0.00262989
     atom   16 type  1   force =    -0.00195703    0.00037905    0.00261905
     atom   17 type  1   force =     0.00195413    0.00038749    0.00263397
     atom   18 type  1   force =    -0.00000267    0.00000063    0.00992845
     atom   19 type  1   force =    -0.00014080    0.00008525    0.00033167
     atom   20 type  1   force =     0.00013518    0.00009299    0.00029060
     atom   21 type  1   force =     0.00001784   -0.00055473   -0.00047483
     atom   22 type  1   force =    -0.00001406   -0.00013584    0.00072922
     atom   23 type  1   force =    -0.00048480    0.00029186   -0.00046505
     atom   24 type  1   force =     0.00050824    0.00028658   -0.00046465
     atom   25 type  1   force =     0.00010914    0.00006029    0.00070561
     atom   26 type  1   force =    -0.00000156   -0.00016451    0.00033699
     atom   27 type  1   force =    -0.00011864    0.00004803    0.00072225
     atom   28 type  1   force =     0.00220349    0.00126521    0.00128692
     atom   29 type  1   force =    -0.00221281    0.00125881    0.00129595
     atom   30 type  1   force =    -0.00000860    0.00019079    0.00010901
     atom   31 type  1   force =    -0.00000665   -0.00253080    0.00128299
     atom   32 type  1   force =    -0.00053100   -0.00029953    0.00057440
     atom   33 type  1   force =     0.00053535   -0.00031033    0.00055757
     atom   34 type  1   force =     0.00016667   -0.00010303    0.00010128
     atom   35 type  1   force =    -0.00000215    0.00062640    0.00055799
     atom   36 type  1   force =    -0.00015614   -0.00008710    0.00009937
     atom   37 type  2   force =     0.00001749   -0.00000168   -0.00417396

     Total force =     0.006899     Total SCF correction =     0.001370
     SCF correction compared to forces is large: reduce conv_thr to get better values

[...]

     negative rho (up, down):  1.255E-02 0.000E+00

     negative rho (up, down):  1.255E-02 0.000E+00
 BEEFens 2000 ensemble energies
             -0.600116092473282E+02
             -0.357917005133100E+01
             -0.157040195653910E+02
              0.424677830409981E+02
             -0.219058454031601E+02
             -0.203793092425835E+02
             -0.347300389677727E+02
             -0.854838068409208E+02
             -0.462084550217853E+02
             -0.469290000499452E+02
             -0.365360425708793E+02
              0.219902877478075E+01
              0.403093248608806E+01
              0.769871719271148E+01
              0.261227587547879E+01
              0.470122108836971E+02
             -0.206959390249127E+02
             -0.229693520763238E+02
              0.190432431668938E+02
             -0.111271811341592E+03
              0.530390775328102E+02
             -0.288009712683005E+02
             -0.326908692028912E+01
             -0.113268324416614E+02
             -0.889526804279001E+01
             -0.462018703324111E+01
              0.874022796686488E+02
             -0.184234902231679E+02
             -0.894094697205389E+01
             -0.512600245583025E+02
              0.809144238308822E+02
             -0.187315349197706E+02
             -0.370698912388818E+02
              0.247666967767711E+02
             -0.280824516934348E+01
              0.160661097719011E+02
             -0.490078563170005E+01
              0.108463421653927E+02
              0.283978813440576E+02
             -0.102295323594393E+03
              0.552788024984313E+02
              0.141171548580034E+02
             -0.156252908452433E+01
             -0.358659701222799E+02
              0.121977639986434E+02
             -0.144540988041739E+02
              0.392974247382699E+02
              0.361421570566047E+02
             -0.306561328416954E+02
             -0.271785958393773E+02
             -0.325104320071198E+02
             -0.348356614894866E+02
              0.133766597768260E+02
             -0.485555586865210E+02
              0.113746829859991E+02
              0.616958670282671E+02
              0.627234416821624E+02
              0.352677496318046E+02
              0.152651058194583E+02
              0.266963280277655E+02
[...]
             -0.698203048122597E+02
             -0.974908750150917E+00
             -0.248393873527835E+01
             -0.871042524382187E+01
             -0.183534861261688E+01
             -0.646274689018746E+02
             -0.210181608706374E+02
              0.523873946546529E+01
              0.882193613278767E+01
              0.463445449598977E+02
             -0.393176510221051E+02
              0.652507030209515E+02
             -0.421290951546353E+02
              0.207334164100988E+02
              0.345673616159478E+02

 BEEF-vdW xc energy contributions
           1 :   -775.557928401646
           2 :    713.197655940517
           3 :   -604.921283173944
           4 :    477.020245368995
           5 :   -356.519333749123
           6 :    263.100787581057
           7 :   -204.528587649343
           8 :    176.525732033742
           9 :   -166.674843338962
          10 :    160.476648430226
          11 :   -147.090629229824
          12 :    122.598798326426
          13 :   -89.9361459141810
          14 :    56.0656249661088
          15 :   -28.0238213518827
          16 :    9.64193137170957
          17 :  -0.222337453503542
          18 :   -4.55428705780662
          19 :    10.1709057582877
          20 :   -20.5643358830238
          21 :    36.4152313898433
          22 :   -55.1174785269792
          23 :    72.2717746243471
          24 :   -83.8898812783300
          25 :    88.2227597787893
          26 :   -86.3980843831843
          27 :    81.6687321187002
          28 :   -77.7329211665879
          29 :    76.9731515314626
          30 :   -79.4474766594681
          31 :   -84.7752716814239
          32 :   -65.0988494016220

     Writing output data file ./pwscf.save/

     General routines

     Parallel routines

   This run was terminated on:  18:45:36  20Dec2022

   JOB DONE.