     Program PWSCF v.6.7MaX starts on 21Dec2022 at  9:30:35

     Reading input from o2-ensemble.in
Warning: card &CELL ignored
Warning: card / ignored

     Current dimensions of program PWSCF are:
     Max number of different atomic species (ntypx) = 10
     Max number of k-points (npk) =  40000
     Max angular momentum in pseudopotentials (lmaxx) =  3
     file Pt.pbe-n-kjpaw_psl.1.0.0.UPF: wavefunction(s)  6S 5D renormalized
     file O.pbe-nl-kjpaw_psl.1.0.0.UPF: wavefunction(s)  2S 2P renormalized

     IMPORTANT: XC functional enforced from input :
     Exchange-correlation= BEEF-VDW
                           (   1   4  43  14   2   0   0)
     Any further DFT definition will be discarded
     Please, verify this is what you really want

     Subspace diagonalization in iterative solution of the eigenvalue problem:
     a serial algorithm will be used

     bravais-lattice index     =            0
     lattice parameter (alat)  =      16.0349  a.u.
     unit-cell volume          =   10855.1232 (a.u.)^3
     number of atoms/cell      =           38
     number of atomic types    =            2
     number of electrons       =       372.00
     number of Kohn-Sham states=          223
     kinetic-energy cutoff     =      60.0000  Ry
     charge density cutoff     =     240.0000  Ry
     scf convergence threshold =      1.0E-06
     mixing beta               =       0.7000
     number of iterations used =            8  local-TF  mixing
     Exchange-correlation= BEEF-VDW
                           (   1   4  43  14   2   0   0)

     celldm(1)=  16.034858  celldm(2)=   0.000000  celldm(3)=   0.000000
     celldm(4)=   0.000000  celldm(5)=   0.000000  celldm(6)=   0.000000

     crystal axes: (cart. coord. in units of alat)
               a(1) = (   1.000000   0.000000   0.000000 )
               a(2) = (   0.500000   0.866025   0.000000 )
               a(3) = (   0.000000   0.000000   3.040246 )

     reciprocal axes: (cart. coord. in units 2 pi/alat)
               b(1) = (  1.000000 -0.577350  0.000000 )
               b(2) = (  0.000000  1.154701  0.000000 )
               b(3) = (  0.000000  0.000000  0.328921 )

     PseudoPot. # 1 for Pt read from file:
     /users/bkreitz1/quantum-espresso/potentials/Pt.pbe-n-kjpaw_psl.1.0.0.UPF
     MD5 check sum: 04dc8a03c51ece93fc7b5889c2958091
     Pseudo is Projector augmented-wave + core cor, Zval = 10.0
     Generated using 'atomic' code by A. Dal Corso  v.6.7MaX
     Shape of augmentation charge: PSQ
     Using radial grid of 1277 points,  6 beta functions with:
                l(1) =   0
                l(2) =   0
                l(3) =   1
                l(4) =   1
                l(5) =   2
                l(6) =   2
     Q(r) pseudized with 0 coefficients

     PseudoPot. # 2 for O  read from file:
     /users/bkreitz1/quantum-espresso/potentials/O.pbe-nl-kjpaw_psl.1.0.0.UPF
     MD5 check sum: eef08af8b58d9ec80f8fdb78829eb7cf
     Pseudo is Projector augmented-wave + core cor, Zval =  6.0
     Generated using 'atomic' code by A. Dal Corso  v.6.7MaX
     Shape of augmentation charge: PSQ
     Using radial grid of 1095 points,  4 beta functions with:
                l(1) =   0
                l(2) =   0
                l(3) =   1
                l(4) =   1
     Q(r) pseudized with 0 coefficients

     atomic species   valence    mass     pseudopotential
        Pt            10.00   195.08400     Pt( 1.00)
        O              6.00    15.99900     O ( 1.00)

     No symmetry found

   Cartesian axes

     site n.     atom                  positions (alat units)
         1           Pt  tau(   1) = (   0.0000000   0.0000000   1.0017346  )
         2           Pt  tau(   2) = (   0.3333333   0.0000000   1.0017346  )
         3           Pt  tau(   3) = (   0.6666667   0.0000000   1.0017346  )
         4           Pt  tau(   4) = (   0.1666667   0.2886751   1.0017346  )
         5           Pt  tau(   5) = (   0.5000000   0.2886751   1.0017346  )
         6           Pt  tau(   6) = (   0.8333333   0.2886751   1.0017346  )
         7           Pt  tau(   7) = (   0.3333333   0.5773503   1.0017346  )
         8           Pt  tau(   8) = (   0.6666667   0.5773503   1.0017346  )
         9           Pt  tau(   9) = (   1.0000000   0.5773503   1.0017346  )
        10           Pt  tau(  10) = (   0.1666667   0.0962250   1.2739001  )
        11           Pt  tau(  11) = (   0.5000000   0.0962250   1.2739001  )
        12           Pt  tau(  12) = (   0.8333333   0.0962250   1.2739001  )
        13           Pt  tau(  13) = (   0.3333333   0.3849002   1.2739001  )
        14           Pt  tau(  14) = (   0.6666667   0.3849002   1.2739001  )
        15           Pt  tau(  15) = (   1.0000000   0.3849002   1.2739001  )
        16           Pt  tau(  16) = (   0.5000000   0.6735753   1.2739001  )
        17           Pt  tau(  17) = (   0.8333333   0.6735753   1.2739001  )
        18           Pt  tau(  18) = (   1.1666667   0.6735753   1.2739001  )
        19           Pt  tau(  19) = (   0.0006580   0.1918031   1.5409428  )
        20           Pt  tau(  20) = (   0.3340336   0.1920049   1.5430151  )
        21           Pt  tau(  21) = (   0.6669909   0.1926427   1.5407022  )
        22           Pt  tau(  22) = (   0.1669740   0.4813144   1.5406096  )
        23           Pt  tau(  23) = (   0.4995535   0.4780649   1.5476167  )
        24           Pt  tau(  24) = (   0.8331030   0.4820254   1.5409410  )
        25           Pt  tau(  25) = (   0.3304568   0.7709412   1.5475965  )
        26           Pt  tau(  26) = (   0.6690308   0.7711580   1.5465951  )
        27           Pt  tau(  27) = (   0.9999560   0.7706335   1.5430187  )
        28           Pt  tau(  28) = (  -0.0001200   0.0005161   1.8186665  )
        29           Pt  tau(  29) = (   0.3228006  -0.0060429   1.8196772  )
        30           Pt  tau(  30) = (   0.6760383   0.0011395   1.8192418  )
        31           Pt  tau(  31) = (   0.1680464   0.2911027   1.8127904  )
        32           Pt  tau(  32) = (   0.5056537   0.2963195   1.8192359  )
        33           Pt  tau(  33) = (   0.8398881   0.2924860   1.8118867  )
        34           Pt  tau(  34) = (   0.3341155   0.5778486   1.8190048  )
        35           Pt  tau(  35) = (   0.6670490   0.5770436   1.8186774  )
        36           Pt  tau(  36) = (   1.0027601   0.5773965   1.8128143  )
        37           O   tau(  37) = (   0.4082264   0.0435541   2.0410016  )
        38           O   tau(  38) = (   0.5479181   0.1241746   2.0124164  )

     number of k points=    13  Marzari-Vanderbilt smearing, width (Ry)=  0.0200
                       cart. coord. in units 2pi/alat
        k(    1) = (   0.0000000   0.0000000   0.0000000), wk =   0.0800000
        k(    2) = (   0.0000000   0.2309401   0.0000000), wk =   0.1600000
        k(    3) = (   0.0000000   0.4618802   0.0000000), wk =   0.1600000
        k(    4) = (   0.2000000  -0.1154701   0.0000000), wk =   0.1600000
        k(    5) = (   0.2000000   0.1154701   0.0000000), wk =   0.1600000
        k(    6) = (   0.2000000   0.3464102   0.0000000), wk =   0.1600000
        k(    7) = (   0.2000000  -0.5773503   0.0000000), wk =   0.1600000
        k(    8) = (   0.2000000  -0.3464102   0.0000000), wk =   0.1600000
        k(    9) = (   0.4000000  -0.2309401   0.0000000), wk =   0.1600000
        k(   10) = (   0.4000000  -0.0000000   0.0000000), wk =   0.1600000
        k(   11) = (   0.4000000   0.2309401   0.0000000), wk =   0.1600000
        k(   12) = (   0.4000000  -0.6928203   0.0000000), wk =   0.1600000
        k(   13) = (   0.4000000  -0.4618802   0.0000000), wk =   0.1600000

     Initial potential from superposition of free atoms

     starting charge  371.99389, renormalised to  372.00000

     negative rho (up, down):  1.280E-02 0.000E+00

     %%%%%%%%%%%%%%%%%%%%%%%%%%%%%%%%%%%%%%%%%%%%%%%%%%%%%%%%%%%%%%%%%%%%%%%%
     %                                                                      %
     % You are using vdW-DF, which was implemented by the Thonhauser group. %
     % Please cite the following two papers that made this development      %
     % possible and the two reviews that describe the various versions:     %
     %                                                                      %
     %   T. Thonhauser et al., PRL 115, 136402 (2015).                      %
     %   T. Thonhauser et al., PRB 76, 125112 (2007).                       %
     %   K. Berland et al., Rep. Prog. Phys. 78, 066501 (2015).             %
     %   D.C. Langreth et al., J. Phys.: Condens. Matter 21, 084203 (2009). %
     %                                                                      %
     %                                                                      %
     % If you are calculating the stress with vdW-DF, please also cite:     %
     %                                                                      %
     %   R. Sabatini et al., J. Phys.: Condens. Matter 24, 424209 (2012).   %
     %                                                                      %
     %%%%%%%%%%%%%%%%%%%%%%%%%%%%%%%%%%%%%%%%%%%%%%%%%%%%%%%%%%%%%%%%%%%%%%%%

     Starting wfcs are  332 randomized atomic wfcs
     Checking if some PAW data can be deallocated...

     Self-consistent Calculation

     iteration #  1     ecut=    60.00 Ry     beta= 0.70
     Davidson diagonalization with overlap
     ethr =  1.00E-02,  avg # of iterations =  2.0

     Threshold (ethr) on eigenvalues was too large:
     Diagonalizing with lowered threshold

     Davidson diagonalization with overlap
     ethr =  6.61E-04,  avg # of iterations =  3.4

[...]

     total energy              =  -27838.63426952 Ry
     estimated scf accuracy    <       2.60151734 Ry

[...]

     iteration #  4     ecut=    60.00 Ry     beta= 0.70
     Davidson diagonalization with overlap
     c_bands:  1 eigenvalues not converged
     c_bands:  1 eigenvalues not converged
     c_bands:  2 eigenvalues not converged
     ethr =  5.68E-05,  avg # of iterations = 13.0

[...]

     iteration # 14     ecut=    60.00 Ry     beta= 0.70
     Davidson diagonalization with overlap
     ethr =  2.53E-09,  avg # of iterations =  4.1

[...]

     total energy              =  -27839.00926778 Ry
     estimated scf accuracy    <       0.00000112 Ry

     iteration # 16     ecut=    60.00 Ry     beta= 0.70
     Davidson diagonalization with overlap
     c_bands:  1 eigenvalues not converged
     ethr =  3.02E-10,  avg # of iterations =  4.8

[...]

     End of self-consistent calculation

          k = 0.0000 0.0000 0.0000 ( 85237 PWs)   bands (ev):

   -21.5436 -13.8601  -6.9316  -6.1015  -5.4587  -4.7086  -4.6548  -4.5085
    -4.4871  -4.4840  -4.4824  -4.4716  -4.4407  -4.3635  -4.2839  -3.9427
    -3.9404  -3.9302  -3.9110  -3.8697  -3.8685  -3.5114  -3.4748  -3.4747
    -3.4433  -3.4095  -3.3987  -3.2634  -3.2492  -3.2387  -3.2265  -3.1938
    -3.1618  -3.0719  -3.0392  -3.0292  -3.0272  -3.0217  -3.0066  -2.9837
    -2.9786  -2.9752  -2.9508  -2.9284  -2.9021  -2.4727  -2.4119  -2.3939
    -2.3934  -2.3661  -2.3603  -2.3505  -2.3217  -2.3085  -2.2298  -2.1631
    -2.1563  -2.0847  -2.0809  -1.7032  -1.6695  -1.6034  -1.6027  -1.5723
    -1.5271  -1.5030  -1.4667  -1.4249  -1.4210  -1.3940  -1.3887  -1.3681
    -1.3641  -1.3561  -1.3386  -1.3322  -1.3092  -1.3046  -1.2927  -1.2864
    -1.2779  -1.2212  -1.1917  -1.1676  -1.1668  -1.1412  -1.1318  -1.0659
    -1.0139  -0.9938  -0.9715  -0.9667  -0.9544  -0.9446  -0.9367  -0.8578
    -0.8311  -0.8121  -0.8070  -0.7676  -0.7200  -0.7017  -0.6998  -0.6641
    -0.6602  -0.6585  -0.5602  -0.5525  -0.5425  -0.5283  -0.4972  -0.3660
    -0.3185  -0.2162  -0.0965  -0.0630  -0.0486  -0.0361  -0.0291  -0.0152
    -0.0059   0.0369   0.0674   0.1201   0.1346   0.1386   0.1912   0.2313
     0.2355   0.2651   0.3119   0.3136   0.3744   0.4442   0.4443   0.4735
     0.4751   0.4801   0.6101   0.6534   0.6658   0.7083   0.7224   0.7264
     0.7523   0.7829   0.8640   0.9088   0.9254   0.9372   0.9707   0.9819
     1.0076   1.0084   1.0310   1.0966   1.1189   1.1604   1.1621   1.1823
     1.1829   1.1845   1.1925   1.2029   1.2107   1.2314   1.2930   1.2969
     1.2992   1.3049   1.3175   1.3873   1.3897   1.3906   1.4051   1.4123
     1.4391   1.4667   1.4721   1.4865   1.5345   1.5395   1.5420   1.5550
     1.5702   1.5729   1.5992   1.6179   1.6431   1.6572   1.6755   1.6929
     1.7923   1.8108   1.9215   1.9311   1.9549   1.9974   1.9988   2.0047
     2.1368   2.1466   2.2601   2.8579   2.8937   2.9011   2.9146   3.1096
     3.2547   3.9316   5.2182   5.2268   5.2409   5.3642   5.3964   5.7719
     6.7668   6.7709   6.7934   6.8103   6.8203   6.8558   6.9892

[...]

          k = 0.4000-0.4619 0.0000 ( 85178 PWs)   bands (ev):

   -21.5436 -13.8601  -6.1852  -5.9346  -5.7891  -5.3160  -4.7872  -4.6928
    -4.5246  -4.4189  -4.1499  -4.1266  -4.0128  -3.9760  -3.8756  -3.8688
    -3.7743  -3.7602  -3.6832  -3.6395  -3.6166  -3.6085  -3.5938  -3.5831
    -3.5541  -3.4591  -3.4326  -3.4226  -3.4098  -3.3943  -3.2997  -3.2271
    -3.1690  -3.1203  -3.0836  -3.0555  -3.0360  -3.0103  -2.9691  -2.9101
    -2.8779  -2.7964  -2.7811  -2.6108  -2.6028  -2.5596  -2.4872  -2.4682
    -2.4284  -2.3899  -2.2934  -2.2697  -2.2544  -2.2082  -2.1695  -2.1480
    -2.1092  -2.0894  -2.0244  -2.0104  -1.9947  -1.9781  -1.9659  -1.9397
    -1.9141  -1.8862  -1.8681  -1.7795  -1.7533  -1.7178  -1.6710  -1.6420
    -1.5831  -1.5242  -1.5181  -1.5026  -1.4760  -1.4310  -1.4077  -1.4050
    -1.3549  -1.3295  -1.2879  -1.2699  -1.2399  -1.2264  -1.1503  -1.1286
    -1.1001  -1.0804  -1.0723  -1.0377  -0.9648  -0.9417  -0.9052  -0.8955
    -0.8635  -0.8384  -0.8266  -0.8059  -0.7893  -0.7687  -0.7462  -0.7305
    -0.7061  -0.6981  -0.6875  -0.6655  -0.6498  -0.6310  -0.6068  -0.5837
    -0.5722  -0.5401  -0.4095  -0.3462  -0.2995  -0.2885  -0.2357  -0.1825
    -0.1657  -0.1281  -0.0814  -0.0636  -0.0555  -0.0338   0.0057   0.0256
     0.0440   0.0819   0.1273   0.1399   0.2166   0.2392   0.2536   0.3193
     0.3617   0.4117   0.4293   0.4820   0.5327   0.5614   0.5847   0.6102
     0.6264   0.6741   0.6829   0.6911   0.7288   0.7684   0.7905   0.8302
     0.8668   0.8839   0.9060   0.9416   0.9614   1.0284   1.0469   1.1067
     1.1791   1.2120   1.2443   1.3258   1.3593   1.3751   1.4198   1.4903
     1.5010   1.5498   1.5704   1.6308   1.6615   1.6851   1.7102   1.7286
     1.7374   1.7711   1.8162   1.8348   1.8638   1.8836   1.8964   1.9193
     1.9383   1.9918   2.0103   2.0694   2.1096   2.1349   2.1415   2.1862
     2.1921   2.2923   2.3191   2.3518   2.5204   2.6872   3.2928   3.3003
     3.5686   3.6196   3.6652   3.6983   3.7871   3.9395   4.2822   4.3154
     4.3662   4.7772   4.8519   4.8851   4.9415   5.0053   5.1500   5.2458
     5.3653   5.5804   5.7239   5.7899   5.9921   6.3721   6.4067

     the Fermi energy is     1.9275 ev

!    total energy              =  -27839.00926783 Ry

     total all-electron energy =  -1326943.468479 Ry
     estimated scf accuracy    <       0.00000088 Ry
     smearing contrib. (-TS)   =       0.00176569 Ry
     internal energy E=F+TS    =  -27839.01103352 Ry

     The total energy is F=E-TS. E is the sum of the following terms:
     one-electron contribution =  -24921.68343173 Ry
     hartree contribution      =   12765.61307470 Ry
     xc contribution           =    -905.28506948 Ry
     ewald contribution        =   10716.63235546 Ry
     one-center paw contrib.   =  -25494.28796247 Ry

     convergence has been achieved in  16 iterations

[...]

     Forces acting on atoms (cartesian axes, Ry/au):

     atom    1 type  1   force =    -0.00030261    0.00138009   -0.00493725
     atom    2 type  1   force =    -0.00052141   -0.00029926   -0.00271236
     atom    3 type  1   force =     0.00080418   -0.00083931   -0.00286452
     atom    4 type  1   force =    -0.00056459    0.00030198   -0.00390413
     atom    5 type  1   force =    -0.00032183    0.00110829   -0.00286600
     atom    6 type  1   force =     0.00063600    0.00035837   -0.00401809
     atom    7 type  1   force =    -0.00134308   -0.00077620   -0.00605679
     atom    8 type  1   force =     0.00102880   -0.00094858   -0.00492249
     atom    9 type  1   force =    -0.00001226   -0.00063103   -0.00390462
     atom   10 type  1   force =    -0.00108834   -0.00348775    0.00328809
     atom   11 type  1   force =    -0.00122198   -0.00070679    0.00380477
     atom   12 type  1   force =     0.00194564   -0.00431713    0.00166564
     atom   13 type  1   force =     0.00259931    0.00255060    0.00241175
     atom   14 type  1   force =    -0.00276716    0.00384231    0.00167242
     atom   15 type  1   force =    -0.00026105   -0.00015800   -0.00147049
     atom   16 type  1   force =    -0.00269456   -0.00154654    0.01588196
     atom   17 type  1   force =    -0.00354926    0.00080587    0.00328285
     atom   18 type  1   force =     0.00350355    0.00097146    0.00240782
     atom   19 type  1   force =     0.00013283    0.00004265   -0.00045110
     atom   20 type  1   force =    -0.00008652   -0.00016472    0.00024028
     atom   21 type  1   force =     0.00010439    0.00005363   -0.00010666
     atom   22 type  1   force =     0.00032215    0.00017949   -0.00012805
     atom   23 type  1   force =     0.00024683    0.00027622   -0.00003349
     atom   24 type  1   force =     0.00009586    0.00009478   -0.00042782
     atom   25 type  1   force =     0.00036638    0.00010455   -0.00003511
     atom   26 type  1   force =     0.00039520    0.00025252    0.00070984
     atom   27 type  1   force =    -0.00017604    0.00003301    0.00023318
     atom   28 type  1   force =     0.00091304    0.00020235    0.00029485
     atom   29 type  1   force =     0.00019887    0.00013811   -0.00040647
     atom   30 type  1   force =     0.00024573    0.00057676    0.00022509
     atom   31 type  1   force =    -0.00002939    0.00003044    0.00015920
     atom   32 type  1   force =     0.00061571   -0.00008829    0.00022542
     atom   33 type  1   force =     0.00005609    0.00003941    0.00060571
     atom   34 type  1   force =     0.00024547    0.00013864    0.00058981
     atom   35 type  1   force =     0.00060555    0.00071134    0.00029882
     atom   36 type  1   force =     0.00001228   -0.00004909    0.00015404
     atom   37 type  2   force =     0.00005515   -0.00002770    0.00072787
     atom   38 type  2   force =    -0.00018892   -0.00015247    0.00036603

     Total force =     0.002529     Total SCF correction =     0.003331
     SCF correction compared to forces is large: reduce conv_thr to get better values

[...]

     negative rho (up, down):  1.357E-02 0.000E+00

     negative rho (up, down):  1.357E-02 0.000E+00
 BEEFens 2000 ensemble energies
             -0.605639872277603E+02
             -0.360977854444300E+01
             -0.158292752443222E+02
              0.428555489789581E+02
             -0.220844272647251E+02
             -0.205322738817110E+02
             -0.351249531523856E+02
             -0.863242632490152E+02
             -0.465473375429009E+02
             -0.472746429603222E+02
             -0.368586800315845E+02
              0.224588297127384E+01
              0.406581096237124E+01
              0.767850675821083E+01
              0.264794802826967E+01
              0.474195058803889E+02
             -0.208783510773772E+02
             -0.230890570394174E+02
              0.192228394098142E+02
             -0.112244982101787E+03
              0.535422141177324E+02
             -0.289741896898236E+02
             -0.331892086348020E+01
             -0.114074232931322E+02
             -0.889665928587544E+01
             -0.467785299151430E+01
              0.881690109081441E+02
             -0.185958409817555E+02
             -0.902653427264590E+01
             -0.517439730386100E+02
              0.815393696564440E+02
             -0.188073798984210E+02
             -0.374271167519904E+02
              0.249533278422103E+02
             -0.283064107729291E+01
              0.162902072157099E+02
             -0.488956509360844E+01
              0.108631500674597E+02
              0.286898877299445E+02
             -0.103183054707904E+03
              0.557517388965053E+02
              0.142226571604632E+02
             -0.163811713832581E+01
             -0.361548668156861E+02
              0.122914794218443E+02
             -0.146014013723266E+02
              0.397210387130352E+02
              0.364534950792287E+02
             -0.308401242389859E+02
             -0.274528368915293E+02
             -0.327641780000689E+02
             -0.351451022448688E+02
              0.135300204818762E+02
             -0.490200663573190E+02
              0.115102139393922E+02
              0.622354608518929E+02
              0.633620826440102E+02
              0.355500980437342E+02
              0.154202359659731E+02
              0.269664712714474E+02
[...]
             -0.704689632021347E+02
             -0.957130182011724E+00
             -0.246890656524383E+01
             -0.880302736655563E+01
             -0.179966604691805E+01
             -0.651959793538643E+02
             -0.211286466382308E+02
              0.534012381485490E+01
              0.892127788304217E+01
              0.467743829064123E+02
             -0.396754161774386E+02
              0.657430102702785E+02
             -0.424694447754210E+02
              0.209511853108074E+02
              0.349371746829187E+02

 BEEF-vdW xc energy contributions
           1 :   -781.988914406325
           2 :    718.757994079792
           3 :   -609.133771479476
           4 :    479.849863036472
           5 :   -358.194154475349
           6 :    263.940454870222
           7 :   -204.840346373660
           8 :    176.550618416419
           9 :   -166.566750173958
          10 :    160.306759533734
          11 :   -146.874031386345
          12 :    122.331341597780
          13 :   -89.6198791845254
          14 :    55.7180963140144
          15 :   -27.6796146661924
          16 :    9.34952960270584
          17 :  -3.064948889903008E-002
          18 :   -4.61436001540358
          19 :    10.0992345416659
          20 :   -20.3908602256982
          21 :    36.1854261291288
          22 :   -54.8717282461740
          23 :    72.0308852776284
          24 :   -83.6489883436378
          25 :    87.9558756502383
          26 :   -86.0753311254022
          27 :    81.2754286394673
          28 :   -77.2821262856224
          29 :    76.5114001573767
          30 :   -79.0523490885539
          31 :   -85.5349682022918
          32 :   -65.6058456773334

     Writing output data file ./pwscf.save/

     General routines

     Parallel routines

   This run was terminated on:  12:42:21  21Dec2022

   JOB DONE.