     Program PWSCF v.6.7MaX starts on 16May2022 at  9:38:21

     Reading input from och2ch3ads_ensemble.in
Warning: card &CELL ignored
Warning: card / ignored

     Current dimensions of program PWSCF are:
     Max number of different atomic species (ntypx) = 10
     Max number of k-points (npk) =  40000
     Max angular momentum in pseudopotentials (lmaxx) =  3
     file Pt.pbe-n-kjpaw_psl.1.0.0.UPF: wavefunction(s)  6S 5D renormalized
     file O.pbe-nl-kjpaw_psl.1.0.0.UPF: wavefunction(s)  2S 2P renormalized
     file C.pbe-n-kjpaw_psl.1.0.0.UPF: wavefunction(s)  2S 2P renormalized
     file H.pbe-kjpaw_psl.1.0.0.UPF: wavefunction(s)  1S renormalized

     IMPORTANT: XC functional enforced from input :
     Exchange-correlation= BEEF-VDW
                           (   1   4  43  14   2   0   0)
     Any further DFT definition will be discarded
     Please, verify this is what you really want

     Subspace diagonalization in iterative solution of the eigenvalue problem:
     a serial algorithm will be used

     bravais-lattice index     =            0
     lattice parameter (alat)  =      16.0349  a.u.
     unit-cell volume          =   12178.4024 (a.u.)^3
     number of atoms/cell      =           44
     number of atomic types    =            4
     number of electrons       =       379.00
     number of Kohn-Sham states=          228
     kinetic-energy cutoff     =      60.0000  Ry
     charge density cutoff     =     240.0000  Ry
     scf convergence threshold =      1.0E-06
     mixing beta               =       0.7000
     number of iterations used =            8  local-TF  mixing
     Exchange-correlation= BEEF-VDW
                           (   1   4  43  14   2   0   0)

     celldm(1)=  16.034858  celldm(2)=   0.000000  celldm(3)=   0.000000
     celldm(4)=   0.000000  celldm(5)=   0.000000  celldm(6)=   0.000000

     crystal axes: (cart. coord. in units of alat)
               a(1) = (   1.000000   0.000000   0.000000 )
               a(2) = (   0.500000   0.866025   0.000000 )
               a(3) = (   0.000000   0.000000   3.410864 )

     reciprocal axes: (cart. coord. in units 2 pi/alat)
               b(1) = (  1.000000 -0.577350  0.000000 )
               b(2) = (  0.000000  1.154701  0.000000 )
               b(3) = (  0.000000  0.000000  0.293181 )

     PseudoPot. # 1 for Pt read from file:
     /users/bkreitz1/quantum-espresso/potentials/Pt.pbe-n-kjpaw_psl.1.0.0.UPF
     MD5 check sum: 04dc8a03c51ece93fc7b5889c2958091
     Pseudo is Projector augmented-wave + core cor, Zval = 10.0
     Generated using 'atomic' code by A. Dal Corso  v.6.7MaX
     Shape of augmentation charge: PSQ
     Using radial grid of 1277 points,  6 beta functions with:
                l(1) =   0
                l(2) =   0
                l(3) =   1
                l(4) =   1
                l(5) =   2
                l(6) =   2
     Q(r) pseudized with 0 coefficients

     PseudoPot. # 2 for O  read from file:
     /users/bkreitz1/quantum-espresso/potentials/O.pbe-nl-kjpaw_psl.1.0.0.UPF
     MD5 check sum: eef08af8b58d9ec80f8fdb78829eb7cf
     Pseudo is Projector augmented-wave + core cor, Zval =  6.0
     Generated using 'atomic' code by A. Dal Corso  v.6.7MaX
     Shape of augmentation charge: PSQ
     Using radial grid of 1095 points,  4 beta functions with:
                l(1) =   0
                l(2) =   0
                l(3) =   1
                l(4) =   1
     Q(r) pseudized with 0 coefficients

     PseudoPot. # 3 for C  read from file:
     /users/bkreitz1/quantum-espresso/potentials/C.pbe-n-kjpaw_psl.1.0.0.UPF
     MD5 check sum: a169b0ebad56f5ec0d79c4633f80bf22
     Pseudo is Projector augmented-wave + core cor, Zval =  4.0
     Generated using 'atomic' code by A. Dal Corso  v.6.7MaX
     Shape of augmentation charge: PSQ
     Using radial grid of 1073 points,  4 beta functions with:
                l(1) =   0
                l(2) =   0
                l(3) =   1
                l(4) =   1
     Q(r) pseudized with 0 coefficients

     PseudoPot. # 4 for H  read from file:
     /users/bkreitz1/quantum-espresso/potentials/H.pbe-kjpaw_psl.1.0.0.UPF
     MD5 check sum: ae98473e6dc62675f0d0baffdab24f65
     Pseudo is Projector augmented-wave, Zval =  1.0
     Generated using 'atomic' code by A. Dal Corso  v.6.7MaX
     Shape of augmentation charge: PSQ
     Using radial grid of  929 points,  2 beta functions with:
                l(1) =   0
                l(2) =   0
     Q(r) pseudized with 0 coefficients

     atomic species   valence    mass     pseudopotential
        Pt            10.00   195.08400     Pt( 1.00)
        O              6.00    15.99900     O ( 1.00)
        C              4.00    12.01100     C ( 1.00)
        H              1.00     1.00800     H ( 1.00)

     No symmetry found

   Cartesian axes

     site n.     atom                  positions (alat units)
         1           Pt  tau(   1) = (   0.0000000   0.0000000   1.0017346  )
         2           Pt  tau(   2) = (   0.3333333   0.0000000   1.0017346  )
         3           Pt  tau(   3) = (   0.6666667   0.0000000   1.0017346  )
         4           Pt  tau(   4) = (   0.1666667   0.2886751   1.0017346  )
         5           Pt  tau(   5) = (   0.5000000   0.2886751   1.0017346  )
         6           Pt  tau(   6) = (   0.8333333   0.2886751   1.0017346  )
         7           Pt  tau(   7) = (   0.3333333   0.5773503   1.0017346  )
         8           Pt  tau(   8) = (   0.6666667   0.5773503   1.0017346  )
         9           Pt  tau(   9) = (   1.0000000   0.5773503   1.0017346  )
        10           Pt  tau(  10) = (   0.1666667   0.0962250   1.2739001  )
        11           Pt  tau(  11) = (   0.5000000   0.0962250   1.2739001  )
        12           Pt  tau(  12) = (   0.8333333   0.0962250   1.2739001  )
        13           Pt  tau(  13) = (   0.3333333   0.3849002   1.2739001  )
        14           Pt  tau(  14) = (   0.6666667   0.3849002   1.2739001  )
        15           Pt  tau(  15) = (   1.0000000   0.3849002   1.2739001  )
        16           Pt  tau(  16) = (   0.5000000   0.6735753   1.2739001  )
        17           Pt  tau(  17) = (   0.8333333   0.6735753   1.2739001  )
        18           Pt  tau(  18) = (   1.1666667   0.6735753   1.2739001  )
        19           Pt  tau(  19) = (  -0.0015463   0.1951585   1.5457238  )
        20           Pt  tau(  20) = (   0.3334174   0.1942729   1.5404445  )
        21           Pt  tau(  21) = (   0.6683933   0.1953921   1.5461129  )
        22           Pt  tau(  22) = (   0.1662067   0.4832320   1.5417977  )
        23           Pt  tau(  23) = (   0.4996474   0.4832709   1.5416855  )
        24           Pt  tau(  24) = (   0.8328781   0.4815122   1.5465112  )
        25           Pt  tau(  25) = (   0.3331356   0.7719300   1.5418606  )
        26           Pt  tau(  26) = (   0.6666203   0.7722834   1.5404354  )
        27           Pt  tau(  27) = (   0.9996920   0.7721525   1.5408253  )
        28           Pt  tau(  28) = (   0.0008038   0.0031154   1.8150928  )
        29           Pt  tau(  29) = (   0.3330645   0.0053092   1.8162382  )
        30           Pt  tau(  30) = (   0.6654458   0.0032197   1.8152196  )
        31           Pt  tau(  31) = (   0.1687327   0.2935381   1.8140016  )
        32           Pt  tau(  32) = (   0.4972643   0.2937749   1.8143037  )
        33           Pt  tau(  33) = (   0.8323031   0.2940275   1.8288341  )
        34           Pt  tau(  34) = (   0.3327865   0.5824932   1.8164379  )
        35           Pt  tau(  35) = (   0.6648986   0.5852859   1.8142556  )
        36           Pt  tau(  36) = (   1.0009335   0.5849696   1.8147471  )
        37           O   tau(  37) = (   0.8549159   0.3121237   2.0636031  )
        38           C   tau(  38) = (   0.7240256   0.2854895   2.1644815  )
        39           C   tau(  39) = (   0.7630904   0.3592356   2.3240068  )
        40           H   tau(  40) = (   0.6162101   0.3398294   2.1167114  )
        41           H   tau(  41) = (   0.7016414   0.1583617   2.1763762  )
        42           H   tau(  42) = (   0.6648807   0.3394726   2.4049731  )
        43           H   tau(  43) = (   0.8692481   0.3063870   2.3737247  )
        44           H   tau(  44) = (   0.7816940   0.4858824   2.3125421  )

     number of k points=    13  Marzari-Vanderbilt smearing, width (Ry)=  0.0200
                       cart. coord. in units 2pi/alat
        k(    1) = (   0.0000000   0.0000000   0.0000000), wk =   0.0800000
        k(    2) = (   0.0000000   0.2309401   0.0000000), wk =   0.1600000
        k(    3) = (   0.0000000   0.4618802   0.0000000), wk =   0.1600000
        k(    4) = (   0.2000000  -0.1154701   0.0000000), wk =   0.1600000
        k(    5) = (   0.2000000   0.1154701   0.0000000), wk =   0.1600000
        k(    6) = (   0.2000000   0.3464102   0.0000000), wk =   0.1600000
        k(    7) = (   0.2000000  -0.5773503   0.0000000), wk =   0.1600000
        k(    8) = (   0.2000000  -0.3464102   0.0000000), wk =   0.1600000
        k(    9) = (   0.4000000  -0.2309401   0.0000000), wk =   0.1600000
        k(   10) = (   0.4000000  -0.0000000   0.0000000), wk =   0.1600000
        k(   11) = (   0.4000000   0.2309401   0.0000000), wk =   0.1600000
        k(   12) = (   0.4000000  -0.6928203   0.0000000), wk =   0.1600000
        k(   13) = (   0.4000000  -0.4618802   0.0000000), wk =   0.1600000

     Check: negative core charge=   -0.000002

     Initial potential from superposition of free atoms

     starting charge  378.99376, renormalised to  379.00000

     negative rho (up, down):  1.133E-02 0.000E+00

     %%%%%%%%%%%%%%%%%%%%%%%%%%%%%%%%%%%%%%%%%%%%%%%%%%%%%%%%%%%%%%%%%%%%%%%%
     %                                                                      %
     % You are using vdW-DF, which was implemented by the Thonhauser group. %
     % Please cite the following two papers that made this development      %
     % possible and the two reviews that describe the various versions:     %
     %                                                                      %
     %   T. Thonhauser et al., PRL 115, 136402 (2015).                      %
     %   T. Thonhauser et al., PRB 76, 125112 (2007).                       %
     %   K. Berland et al., Rep. Prog. Phys. 78, 066501 (2015).             %
     %   D.C. Langreth et al., J. Phys.: Condens. Matter 21, 084203 (2009). %
     %                                                                      %
     %                                                                      %
     % If you are calculating the stress with vdW-DF, please also cite:     %
     %                                                                      %
     %   R. Sabatini et al., J. Phys.: Condens. Matter 24, 424209 (2012).   %
     %                                                                      %
     %%%%%%%%%%%%%%%%%%%%%%%%%%%%%%%%%%%%%%%%%%%%%%%%%%%%%%%%%%%%%%%%%%%%%%%%

     Starting wfcs are  341 randomized atomic wfcs
     Checking if some PAW data can be deallocated...

     Self-consistent Calculation

     iteration #  1     ecut=    60.00 Ry     beta= 0.70
     Davidson diagonalization with overlap
     ethr =  1.00E-02,  avg # of iterations =  3.1

     Threshold (ethr) on eigenvalues was too large:
     Diagonalizing with lowered threshold

     Davidson diagonalization with overlap
     ethr =  7.87E-04,  avg # of iterations =  2.7

[...]

     total energy              =  -27840.63502391 Ry
     estimated scf accuracy    <       3.17159556 Ry

[...]

     iteration #  6     ecut=    60.00 Ry     beta= 0.70
     Davidson diagonalization with overlap
     c_bands:  1 eigenvalues not converged
     c_bands:  1 eigenvalues not converged
     c_bands:  1 eigenvalues not converged
     c_bands:  3 eigenvalues not converged
     c_bands:  1 eigenvalues not converged
     ethr =  1.49E-05,  avg # of iterations = 12.5

[...]

     iteration # 13     ecut=    60.00 Ry     beta= 0.70
     Davidson diagonalization with overlap
     c_bands:  1 eigenvalues not converged
     c_bands:  1 eigenvalues not converged
     ethr =  1.76E-07,  avg # of iterations =  9.2

[...]

     total energy              =  -27840.84167618 Ry
     estimated scf accuracy    <       0.00000156 Ry

     iteration # 22     ecut=    60.00 Ry     beta= 0.70
     Davidson diagonalization with overlap
     ethr =  4.11E-10,  avg # of iterations =  1.9

[...]

     End of self-consistent calculation

          k = 0.0000 0.0000 0.0000 ( 95475 PWs)   bands (ev):

   -18.2184 -11.8526  -8.4721  -7.4531  -6.1781  -5.4804  -5.0743  -5.0497
    -5.0418  -5.0329  -5.0249  -5.0141  -5.0069  -4.9644  -4.8980  -4.4770
    -4.4753  -4.4724  -4.4684  -4.4648  -4.4490  -4.0161  -4.0138  -4.0016
    -3.9945  -3.9926  -3.9863  -3.8008  -3.7872  -3.7844  -3.7814  -3.7807
    -3.7530  -3.6328  -3.5646  -3.5631  -3.5582  -3.5523  -3.5502  -3.5469
    -3.5409  -3.5359  -3.5321  -3.5118  -3.4940  -3.4510  -2.9834  -2.9431
    -2.9297  -2.9272  -2.9182  -2.8918  -2.8674  -2.8559  -2.8523  -2.8363
    -2.7817  -2.7098  -2.6877  -2.6225  -2.5913  -2.5423  -2.1744  -2.1202
    -2.1084  -2.1039  -2.0957  -2.0686  -2.0368  -1.9536  -1.9455  -1.9407
    -1.9376  -1.9157  -1.9122  -1.8980  -1.8915  -1.8847  -1.8828  -1.8747
    -1.8626  -1.8496  -1.8379  -1.8275  -1.7453  -1.7133  -1.6959  -1.6943
    -1.6794  -1.6737  -1.5503  -1.5410  -1.5336  -1.5252  -1.5045  -1.5002
    -1.4673  -1.4633  -1.3947  -1.3793  -1.3390  -1.3230  -1.3035  -1.2640
    -1.2591  -1.2560  -1.2194  -1.2172  -1.1628  -1.1105  -1.0773  -1.0600
    -1.0555  -1.0391  -0.9558  -0.7521  -0.6806  -0.6115  -0.5821  -0.5776
    -0.5700  -0.5663  -0.5635  -0.5186  -0.4982  -0.4967  -0.4878  -0.4258
    -0.3986  -0.3779  -0.3271  -0.2791  -0.2609  -0.2600  -0.1844  -0.1627
    -0.1557  -0.1128  -0.0811  -0.0791  -0.0712  -0.0640   0.0853   0.1416
     0.1641   0.1651   0.1685   0.1840   0.2306   0.2471   0.3931   0.4177
     0.4228   0.4407   0.4511   0.4913   0.5250   0.5661   0.5696   0.5990
     0.6041   0.6076   0.6326   0.6361   0.6388   0.6455   0.6681   0.6966
     0.7345   0.7465   0.7480   0.7703   0.7742   0.8003   0.8188   0.8445
     0.8474   0.8674   0.8809   0.9020   0.9100   0.9188   0.9307   0.9879
     0.9925   0.9954   1.0097   1.0212   1.0217   1.0296   1.0550   1.1113
     1.1135   1.1309   1.1427   1.1535   1.1690   1.3103   1.3532   1.4184
     1.4344   1.4482   1.4543   1.4562   1.4696   1.5653   2.2979   2.3340
     2.3359   2.3514   2.3736   2.4063   3.1677   4.6504   4.6668   4.6713
     4.6803   4.7017   5.2445   5.6505   6.2038   6.2047   6.2242   6.2443
     6.2584   6.2670   6.2861   6.5818

[...]

          k = 0.4000-0.4619 0.0000 ( 95572 PWs)   bands (ev):

   -18.2184 -11.8526  -8.4726  -6.4913  -6.4869  -5.8902  -5.5390  -5.2386
    -5.1246  -4.9163  -4.7125  -4.6812  -4.5739  -4.5387  -4.4342  -4.4202
    -4.3318  -4.3182  -4.2140  -4.2042  -4.1965  -4.1627  -4.1514  -4.1388
    -4.1319  -4.0104  -3.9901  -3.9765  -3.9564  -3.9365  -3.8612  -3.7740
    -3.7342  -3.6856  -3.6130  -3.5870  -3.5717  -3.5647  -3.5370  -3.5267
    -3.4392  -3.4260  -3.3379  -3.3291  -3.1643  -3.1454  -3.1212  -3.0207
    -2.9935  -2.9574  -2.9413  -2.8786  -2.8157  -2.7757  -2.7568  -2.7362
    -2.7031  -2.6634  -2.6554  -2.6442  -2.6222  -2.5366  -2.5200  -2.5069
    -2.4973  -2.4908  -2.4689  -2.4419  -2.4233  -2.3989  -2.2766  -2.2653
    -2.2261  -2.1997  -2.1180  -2.0829  -2.0631  -2.0480  -2.0142  -1.9984
    -1.9810  -1.9560  -1.8933  -1.8687  -1.8490  -1.8243  -1.8007  -1.7744
    -1.7356  -1.7071  -1.6585  -1.6408  -1.6273  -1.6112  -1.5294  -1.5111
    -1.4621  -1.4374  -1.4178  -1.4130  -1.3856  -1.3752  -1.3616  -1.3402
    -1.3140  -1.2887  -1.2763  -1.2639  -1.2345  -1.2200  -1.2149  -1.2086
    -1.1928  -1.1672  -1.1409  -1.1251  -1.1011  -0.9483  -0.8773  -0.8257
    -0.7939  -0.7819  -0.7119  -0.6799  -0.6752  -0.6540  -0.5908  -0.5855
    -0.5572  -0.5337  -0.5189  -0.4868  -0.4542  -0.4101  -0.3782  -0.3519
    -0.3161  -0.2907  -0.2659  -0.2061  -0.1094  -0.0745  -0.0442  -0.0167
     0.0099   0.0549   0.0769   0.1028   0.1202   0.1274   0.1521   0.1713
     0.1996   0.2644   0.2924   0.3263   0.3434   0.3641   0.3749   0.3967
     0.4091   0.4753   0.5431   0.5806   0.6654   0.7252   0.7470   0.8031
     0.8175   0.8433   0.9286   0.9518   0.9659   1.0358   1.0869   1.1078
     1.1338   1.1606   1.1727   1.1911   1.2099   1.2281   1.2540   1.3219
     1.3354   1.3474   1.3584   1.3848   1.3950   1.4127   1.4552   1.5637
     1.5747   1.6030   1.6069   1.6247   1.6674   1.7263   1.7896   1.9283
     2.1541   2.7495   2.7538   2.9631   3.0325   3.1339   3.1447   3.1812
     3.2909   3.7243   3.7696   3.7935   4.2323   4.2655   4.3423   4.3734
     4.3792   4.6102   4.6835   4.7515   4.9244   5.1631   5.2151   5.3193
     5.8019   5.8401   5.8678   6.2049

     the Fermi energy is     1.3774 ev

!    total energy              =  -27840.84167653 Ry

     total all-electron energy =  -1326951.982165 Ry
     estimated scf accuracy    <       0.00000057 Ry
     smearing contrib. (-TS)   =       0.00024439 Ry
     internal energy E=F+TS    =  -27840.84192091 Ry

     The total energy is F=E-TS. E is the sum of the following terms:
     one-electron contribution =  -31090.65374622 Ry
     hartree contribution      =   15844.90057828 Ry
     xc contribution           =    -911.18277959 Ry
     ewald contribution        =   13813.28983741 Ry
     one-center paw contrib.   =  -25497.19581079 Ry

     convergence has been achieved in  22 iterations

[...]

     Forces acting on atoms (cartesian axes, Ry/au):

     atom    1 type  1   force =     0.00079907   -0.00054606   -0.00341147
     atom    2 type  1   force =    -0.00032541   -0.00084353   -0.00857393
     atom    3 type  1   force =    -0.00071211   -0.00047684   -0.00322649
     atom    4 type  1   force =     0.00084870   -0.00098346   -0.00321372
     atom    5 type  1   force =    -0.00063735   -0.00104740   -0.00340326
     atom    6 type  1   force =     0.00003023   -0.00029897   -0.00346713
     atom    7 type  1   force =     0.00013040   -0.00030287   -0.00303089
     atom    8 type  1   force =     0.00019295    0.00029312   -0.00319691
     atom    9 type  1   force =    -0.00015232    0.00062975   -0.00329281
     atom   10 type  1   force =    -0.00055655    0.00156310   -0.00003666
     atom   11 type  1   force =     0.00087516    0.00134115    0.00055041
     atom   12 type  1   force =    -0.00012136    0.00321053    0.00753645
     atom   13 type  1   force =    -0.00025890    0.00116636    0.00089345
     atom   14 type  1   force =     0.00204965   -0.00062724    0.00791676
     atom   15 type  1   force =    -0.00244342   -0.00039420    0.00775146
     atom   16 type  1   force =    -0.00053911    0.00043535    0.00064976
     atom   17 type  1   force =     0.00048615   -0.00110908    0.00194826
     atom   18 type  1   force =     0.00002744    0.00034375    0.00132986
     atom   19 type  1   force =     0.00007458    0.00005857    0.00042866
     atom   20 type  1   force =    -0.00011128    0.00015905    0.00028330
     atom   21 type  1   force =    -0.00055342   -0.00009522    0.00019953
     atom   22 type  1   force =     0.00021707    0.00003227    0.00047754
     atom   23 type  1   force =     0.00018459    0.00012553    0.00017404
     atom   24 type  1   force =     0.00017424    0.00031651    0.00021598
     atom   25 type  1   force =     0.00009251   -0.00011201    0.00051316
     atom   26 type  1   force =     0.00006770   -0.00009825    0.00052853
     atom   27 type  1   force =     0.00032697   -0.00015093    0.00028341
     atom   28 type  1   force =    -0.00008561    0.00023890    0.00033181
     atom   29 type  1   force =    -0.00006804   -0.00048511    0.00022162
     atom   30 type  1   force =     0.00001591    0.00009690    0.00031176
     atom   31 type  1   force =    -0.00006023   -0.00029145    0.00016552
     atom   32 type  1   force =     0.00053882   -0.00003324    0.00042770
     atom   33 type  1   force =    -0.00017772    0.00016543   -0.00008884
     atom   34 type  1   force =     0.00008834   -0.00025163    0.00011445
     atom   35 type  1   force =     0.00003406   -0.00038561    0.00000075
     atom   36 type  1   force =     0.00000299    0.00008186   -0.00003488
     atom   37 type  2   force =     0.00043834    0.00022163    0.00018509
     atom   38 type  3   force =    -0.00023120    0.00040793    0.00164578
     atom   39 type  3   force =    -0.00078940   -0.00165349    0.00177554
     atom   40 type  4   force =    -0.00000099   -0.00004822   -0.00053321
     atom   41 type  4   force =    -0.00013891   -0.00033202   -0.00020807
     atom   42 type  4   force =     0.00033345   -0.00083612    0.00058986
     atom   43 type  4   force =    -0.00023068   -0.00032153   -0.00003892
     atom   44 type  4   force =     0.00016469    0.00083683   -0.00169324

     Total force =     0.004306     Total SCF correction =     0.001371
     SCF correction compared to forces is large: reduce conv_thr to get better values

[...]

     negative rho (up, down):  1.298E-02 0.000E+00

     negative rho (up, down):  1.298E-02 0.000E+00
 BEEFens 2000 ensemble energies
             -0.610276970485305E+02
             -0.361921899346316E+01
             -0.159004296134088E+02
              0.431773537397533E+02
             -0.222365008370684E+02
             -0.206179719138610E+02
             -0.354998597000964E+02
             -0.870226797691653E+02
             -0.467093293146223E+02
             -0.474761384476900E+02
             -0.371161497954845E+02
              0.231964649728837E+01
              0.408358251776383E+01
              0.759583665203681E+01
              0.267575324844108E+01
              0.477509123095585E+02
             -0.209917926197499E+02
             -0.230741007316283E+02
              0.194064040935391E+02
             -0.113002807384994E+03
              0.539388014575003E+02
             -0.290804522590913E+02
             -0.337389401444761E+01
             -0.114651606380739E+02
             -0.881542152465488E+01
             -0.466339331467574E+01
              0.887649008406433E+02
             -0.188383270394532E+02
             -0.905124379089546E+01
             -0.521420755088994E+02
              0.819216437812552E+02
             -0.187496172596248E+02
             -0.377122715324082E+02
              0.250241020773424E+02
             -0.285863773911308E+01
              0.165506531128091E+02
             -0.485252013571602E+01
              0.108166486009959E+02
              0.290298090080467E+02
             -0.103818418356787E+03
              0.561505616651145E+02
              0.143111270671071E+02
             -0.179036680847753E+01
             -0.363128467431505E+02
              0.123840768745809E+02
             -0.147833700891900E+02
              0.401047071453098E+02
              0.366762569813176E+02
             -0.309158187595436E+02
             -0.276670940224139E+02
             -0.329919913305378E+02
             -0.354244844280498E+02
              0.137569544225636E+02
             -0.493703245981955E+02
              0.116510887714089E+02
              0.626531092725709E+02
              0.639418413282065E+02
              0.357700925641634E+02
              0.155085202130168E+02
              0.272380161116411E+02
[...]
             -0.710228975023194E+02
             -0.853628660026402E+00
             -0.246506033913440E+01
             -0.888090329804777E+01
             -0.179525674074762E+01
             -0.656378697017194E+02
             -0.211122325786057E+02
              0.546855733276388E+01
              0.907241733151960E+01
              0.471550217271277E+02
             -0.399949460414249E+02
              0.660213534138317E+02
             -0.427360382013901E+02
              0.211913884468635E+02
              0.352595055292226E+02

 BEEF-vdW xc energy contributions
           1 :   -786.645875334795
           2 :    722.283447197875
           3 :   -611.065305116588
           4 :    480.412295978044
           5 :   -357.941905008475
           6 :    263.424438667922
           7 :   -204.427750760722
           8 :    176.371727657259
           9 :   -166.557448531410
          10 :    160.308574814170
          11 :   -146.748393260834
          12 :    122.037846551681
          13 :   -89.2321056748690
          14 :    55.3710822790891
          15 :   -27.4896464164049
          16 :    9.35161006477244
          17 :  -0.168446684432070
          18 :   -4.44800607646221
          19 :    10.0039985943574
          20 :   -20.4157106788296
          21 :    36.3161393779873
          22 :   -55.0519962106023
          23 :    72.2012116326875
          24 :   -83.7818797815609
          25 :    88.0656753625316
          26 :   -86.2007636098026
          27 :    81.4546978148229
          28 :   -77.5336308932592
          29 :    76.8234857590593
          30 :   -79.3873740125757
          31 :   -86.3235389813995
          32 :   -66.0692956760586

     Writing output data file ./pwscf.save/

     General routines

     Parallel routines

   This run was terminated on:  14:26:51  16May2022

   JOB DONE.