     Program PWSCF v.6.7MaX starts on 28Sep2022 at 10:34:45

     Reading input from och2oh-ensemble.in
Warning: card &CELL ignored
Warning: card / ignored

     Current dimensions of program PWSCF are:
     Max number of different atomic species (ntypx) = 10
     Max number of k-points (npk) =  40000
     Max angular momentum in pseudopotentials (lmaxx) =  3
     file Pt.pbe-n-kjpaw_psl.1.0.0.UPF: wavefunction(s)  6S 5D renormalized
     file O.pbe-nl-kjpaw_psl.1.0.0.UPF: wavefunction(s)  2S 2P renormalized
     file C.pbe-n-kjpaw_psl.1.0.0.UPF: wavefunction(s)  2S 2P renormalized
     file H.pbe-kjpaw_psl.1.0.0.UPF: wavefunction(s)  1S renormalized

     IMPORTANT: XC functional enforced from input :
     Exchange-correlation= BEEF-VDW
                           (   1   4  43  14   2   0   0)
     Any further DFT definition will be discarded
     Please, verify this is what you really want

     Subspace diagonalization in iterative solution of the eigenvalue problem:
     a serial algorithm will be used

     bravais-lattice index     =            0
     lattice parameter (alat)  =      16.0349  a.u.
     unit-cell volume          =   11913.5971 (a.u.)^3
     number of atoms/cell      =           42
     number of atomic types    =            4
     number of electrons       =       379.00
     number of Kohn-Sham states=          228
     kinetic-energy cutoff     =      60.0000  Ry
     charge density cutoff     =     240.0000  Ry
     scf convergence threshold =      1.0E-06
     mixing beta               =       0.7000
     number of iterations used =            8  local-TF  mixing
     Exchange-correlation= BEEF-VDW
                           (   1   4  43  14   2   0   0)

     celldm(1)=  16.034858  celldm(2)=   0.000000  celldm(3)=   0.000000
     celldm(4)=   0.000000  celldm(5)=   0.000000  celldm(6)=   0.000000

     crystal axes: (cart. coord. in units of alat)
               a(1) = (   1.000000   0.000000   0.000000 )
               a(2) = (   0.500000   0.866025   0.000000 )
               a(3) = (   0.000000   0.000000   3.336698 )

     reciprocal axes: (cart. coord. in units 2 pi/alat)
               b(1) = (  1.000000 -0.577350  0.000000 )
               b(2) = (  0.000000  1.154701  0.000000 )
               b(3) = (  0.000000  0.000000  0.299697 )

     PseudoPot. # 1 for Pt read from file:
     /users/bkreitz1/quantum-espresso/potentials/Pt.pbe-n-kjpaw_psl.1.0.0.UPF
     MD5 check sum: 04dc8a03c51ece93fc7b5889c2958091
     Pseudo is Projector augmented-wave + core cor, Zval = 10.0
     Generated using 'atomic' code by A. Dal Corso  v.6.7MaX
     Shape of augmentation charge: PSQ
     Using radial grid of 1277 points,  6 beta functions with:
                l(1) =   0
                l(2) =   0
                l(3) =   1
                l(4) =   1
                l(5) =   2
                l(6) =   2
     Q(r) pseudized with 0 coefficients

     PseudoPot. # 2 for O  read from file:
     /users/bkreitz1/quantum-espresso/potentials/O.pbe-nl-kjpaw_psl.1.0.0.UPF
     MD5 check sum: eef08af8b58d9ec80f8fdb78829eb7cf
     Pseudo is Projector augmented-wave + core cor, Zval =  6.0
     Generated using 'atomic' code by A. Dal Corso  v.6.7MaX
     Shape of augmentation charge: PSQ
     Using radial grid of 1095 points,  4 beta functions with:
                l(1) =   0
                l(2) =   0
                l(3) =   1
                l(4) =   1
     Q(r) pseudized with 0 coefficients

     PseudoPot. # 3 for C  read from file:
     /users/bkreitz1/quantum-espresso/potentials/C.pbe-n-kjpaw_psl.1.0.0.UPF
     MD5 check sum: a169b0ebad56f5ec0d79c4633f80bf22
     Pseudo is Projector augmented-wave + core cor, Zval =  4.0
     Generated using 'atomic' code by A. Dal Corso  v.6.7MaX
     Shape of augmentation charge: PSQ
     Using radial grid of 1073 points,  4 beta functions with:
                l(1) =   0
                l(2) =   0
                l(3) =   1
                l(4) =   1
     Q(r) pseudized with 0 coefficients

     PseudoPot. # 4 for H  read from file:
     /users/bkreitz1/quantum-espresso/potentials/H.pbe-kjpaw_psl.1.0.0.UPF
     MD5 check sum: ae98473e6dc62675f0d0baffdab24f65
     Pseudo is Projector augmented-wave, Zval =  1.0
     Generated using 'atomic' code by A. Dal Corso  v.6.7MaX
     Shape of augmentation charge: PSQ
     Using radial grid of  929 points,  2 beta functions with:
                l(1) =   0
                l(2) =   0
     Q(r) pseudized with 0 coefficients

     atomic species   valence    mass     pseudopotential
        Pt            10.00   195.08400     Pt( 1.00)
        O              6.00    15.99900     O ( 1.00)
        C              4.00    12.01100     C ( 1.00)
        H              1.00     1.00800     H ( 1.00)

     No symmetry found

   Cartesian axes

     site n.     atom                  positions (alat units)
         1           Pt  tau(   1) = (   0.0000000   0.0000000   1.0017346  )
         2           Pt  tau(   2) = (   0.3333333   0.0000000   1.0017346  )
         3           Pt  tau(   3) = (   0.6666667   0.0000000   1.0017346  )
         4           Pt  tau(   4) = (   0.1666667   0.2886751   1.0017346  )
         5           Pt  tau(   5) = (   0.5000000   0.2886751   1.0017346  )
         6           Pt  tau(   6) = (   0.8333333   0.2886751   1.0017346  )
         7           Pt  tau(   7) = (   0.3333333   0.5773503   1.0017346  )
         8           Pt  tau(   8) = (   0.6666667   0.5773503   1.0017346  )
         9           Pt  tau(   9) = (   1.0000000   0.5773503   1.0017346  )
        10           Pt  tau(  10) = (   0.1666667   0.0962250   1.2739001  )
        11           Pt  tau(  11) = (   0.5000000   0.0962250   1.2739001  )
        12           Pt  tau(  12) = (   0.8333333   0.0962250   1.2739001  )
        13           Pt  tau(  13) = (   0.3333333   0.3849002   1.2739001  )
        14           Pt  tau(  14) = (   0.6666667   0.3849002   1.2739001  )
        15           Pt  tau(  15) = (   1.0000000   0.3849002   1.2739001  )
        16           Pt  tau(  16) = (   0.5000000   0.6735753   1.2739001  )
        17           Pt  tau(  17) = (   0.8333333   0.6735753   1.2739001  )
        18           Pt  tau(  18) = (   1.1666667   0.6735753   1.2739001  )
        19           Pt  tau(  19) = (  -0.0002701   0.1928807   1.5423478  )
        20           Pt  tau(  20) = (   0.3332505   0.1908488   1.5470880  )
        21           Pt  tau(  21) = (   0.6664493   0.1929695   1.5419254  )
        22           Pt  tau(  22) = (   0.1666928   0.4817632   1.5406785  )
        23           Pt  tau(  23) = (   0.4997274   0.4816858   1.5407819  )
        24           Pt  tau(  24) = (   0.8330871   0.4815633   1.5418830  )
        25           Pt  tau(  25) = (   0.3333874   0.7701453   1.5410577  )
        26           Pt  tau(  26) = (   0.6683193   0.7713385   1.5472375  )
        27           Pt  tau(  27) = (   0.9984950   0.7710914   1.5450347  )
        28           Pt  tau(  28) = (  -0.0048075   0.0017657   1.8161934  )
        29           Pt  tau(  29) = (   0.3277307   0.0042034   1.8303408  )
        30           Pt  tau(  30) = (   0.6667237   0.0015240   1.8139338  )
        31           Pt  tau(  31) = (   0.1634844   0.2936378   1.8149309  )
        32           Pt  tau(  32) = (   0.4997527   0.2928506   1.8151650  )
        33           Pt  tau(  33) = (   0.8316417   0.2905884   1.8162711  )
        34           Pt  tau(  34) = (   0.3317464   0.5791789   1.8163583  )
        35           Pt  tau(  35) = (   0.6638014   0.5769283   1.8152214  )
        36           Pt  tau(  36) = (   0.9994307   0.5780053   1.8138336  )
        37           O   tau(  37) = (   0.3497130  -0.0061955   2.0664160  )
        38           C   tau(  38) = (   0.2302802   0.0591280   2.1634024  )
        39           H   tau(  39) = (   0.2228946   0.1875753   2.1502451  )
        40           H   tau(  40) = (   0.1150575   0.0058608   2.1341725  )
        41           O   tau(  41) = (   0.2731651   0.0311182   2.3211593  )
        42           H   tau(  42) = (   0.2750895  -0.0817154   2.3394002  )

     number of k points=    13  Marzari-Vanderbilt smearing, width (Ry)=  0.0200
                       cart. coord. in units 2pi/alat
        k(    1) = (   0.0000000   0.0000000   0.0000000), wk =   0.0800000
        k(    2) = (   0.0000000   0.2309401   0.0000000), wk =   0.1600000
        k(    3) = (   0.0000000   0.4618802   0.0000000), wk =   0.1600000
        k(    4) = (   0.2000000  -0.1154701   0.0000000), wk =   0.1600000
        k(    5) = (   0.2000000   0.1154701   0.0000000), wk =   0.1600000
        k(    6) = (   0.2000000   0.3464102   0.0000000), wk =   0.1600000
        k(    7) = (   0.2000000  -0.5773503   0.0000000), wk =   0.1600000
        k(    8) = (   0.2000000  -0.3464102   0.0000000), wk =   0.1600000
        k(    9) = (   0.4000000  -0.2309401   0.0000000), wk =   0.1600000
        k(   10) = (   0.4000000  -0.0000000   0.0000000), wk =   0.1600000
        k(   11) = (   0.4000000   0.2309401   0.0000000), wk =   0.1600000
        k(   12) = (   0.4000000  -0.6928203   0.0000000), wk =   0.1600000
        k(   13) = (   0.4000000  -0.4618802   0.0000000), wk =   0.1600000

     Check: negative core charge=   -0.000001

     Initial potential from superposition of free atoms

     starting charge  378.99382, renormalised to  379.00000

     negative rho (up, down):  1.279E-02 0.000E+00

     %%%%%%%%%%%%%%%%%%%%%%%%%%%%%%%%%%%%%%%%%%%%%%%%%%%%%%%%%%%%%%%%%%%%%%%%
     %                                                                      %
     % You are using vdW-DF, which was implemented by the Thonhauser group. %
     % Please cite the following two papers that made this development      %
     % possible and the two reviews that describe the various versions:     %
     %                                                                      %
     %   T. Thonhauser et al., PRL 115, 136402 (2015).                      %
     %   T. Thonhauser et al., PRB 76, 125112 (2007).                       %
     %   K. Berland et al., Rep. Prog. Phys. 78, 066501 (2015).             %
     %   D.C. Langreth et al., J. Phys.: Condens. Matter 21, 084203 (2009). %
     %                                                                      %
     %                                                                      %
     % If you are calculating the stress with vdW-DF, please also cite:     %
     %                                                                      %
     %   R. Sabatini et al., J. Phys.: Condens. Matter 24, 424209 (2012).   %
     %                                                                      %
     %%%%%%%%%%%%%%%%%%%%%%%%%%%%%%%%%%%%%%%%%%%%%%%%%%%%%%%%%%%%%%%%%%%%%%%%

     Starting wfcs are  339 randomized atomic wfcs
     Checking if some PAW data can be deallocated...

     Self-consistent Calculation

     iteration #  1     ecut=    60.00 Ry     beta= 0.70
     Davidson diagonalization with overlap
     ethr =  1.00E-02,  avg # of iterations =  2.4

     Threshold (ethr) on eigenvalues was too large:
     Diagonalizing with lowered threshold

     Davidson diagonalization with overlap
     ethr =  7.23E-04,  avg # of iterations =  2.9

[...]

     total energy              =  -27861.57514736 Ry
     estimated scf accuracy    <       2.90550827 Ry

[...]

     iteration #  4     ecut=    60.00 Ry     beta= 0.70
     Davidson diagonalization with overlap
     c_bands:  1 eigenvalues not converged
     ethr =  1.01E-04,  avg # of iterations = 10.3

[...]

     iteration # 13     ecut=    60.00 Ry     beta= 0.70
     Davidson diagonalization with overlap
     c_bands:  1 eigenvalues not converged
     ethr =  6.95E-08,  avg # of iterations =  9.8

[...]

     total energy              =  -27861.85871602 Ry
     estimated scf accuracy    <       0.00000214 Ry

     iteration # 22     ecut=    60.00 Ry     beta= 0.70
     Davidson diagonalization with overlap
     ethr =  5.65E-10,  avg # of iterations =  2.0

[...]

     End of self-consistent calculation

          k = 0.0000 0.0000 0.0000 ( 93455 PWs)   bands (ev):

   -19.8664 -17.6447  -9.8194  -7.4784  -6.2883  -6.2064  -5.5504  -5.0981
    -5.0689  -5.0634  -5.0616  -5.0505  -5.0350  -5.0314  -4.9946  -4.7559
    -4.5036  -4.5019  -4.5003  -4.4909  -4.4904  -4.4730  -4.0458  -4.0369
    -4.0272  -4.0212  -4.0207  -4.0100  -3.8130  -3.8113  -3.8093  -3.8086
    -3.8057  -3.7747  -3.5977  -3.5897  -3.5826  -3.5806  -3.5782  -3.5729
    -3.5680  -3.5662  -3.5617  -3.5506  -3.5386  -3.5176  -3.0146  -2.9790
    -2.9551  -2.9489  -2.9372  -2.9205  -2.8973  -2.8832  -2.8821  -2.8710
    -2.7364  -2.7344  -2.6649  -2.6506  -2.4851  -2.2523  -2.1655  -2.1397
    -2.1383  -2.1296  -2.0754  -2.0697  -2.0127  -1.9745  -1.9687  -1.9662
    -1.9505  -1.9403  -1.9329  -1.9225  -1.9104  -1.9084  -1.8935  -1.8855
    -1.8817  -1.8672  -1.8608  -1.7935  -1.7545  -1.7216  -1.7149  -1.7051
    -1.7035  -1.5817  -1.5769  -1.5620  -1.5577  -1.5319  -1.5281  -1.5023
    -1.4925  -1.4521  -1.4116  -1.4057  -1.3546  -1.3514  -1.3255  -1.2879
    -1.2861  -1.2472  -1.2471  -1.1975  -1.1684  -1.1017  -1.0961  -1.0920
    -1.0743  -1.0183  -0.8666  -0.7225  -0.6470  -0.6150  -0.6112  -0.6007
    -0.5980  -0.5950  -0.5857  -0.5320  -0.5276  -0.5218  -0.4710  -0.4338
    -0.4267  -0.4171  -0.3211  -0.2981  -0.2888  -0.2785  -0.2156  -0.1854
    -0.1804  -0.1273  -0.1186  -0.1112  -0.1044  -0.1029   0.0635   0.1215
     0.1345   0.1362   0.1403   0.1574   0.1987   0.2211   0.3732   0.3891
     0.3968   0.4121   0.4141   0.4593   0.4596   0.5387   0.5417   0.5695
     0.5741   0.5766   0.6041   0.6097   0.6109   0.6142   0.6331   0.6588
     0.7074   0.7161   0.7181   0.7413   0.7442   0.7738   0.7911   0.8183
     0.8189   0.8371   0.8508   0.8752   0.8802   0.8924   0.9002   0.9445
     0.9603   0.9639   0.9805   0.9884   0.9930   1.0028   1.0277   1.0829
     1.0839   1.0966   1.1003   1.1096   1.1305   1.2850   1.3206   1.3889
     1.4033   1.4197   1.4214   1.4261   1.4403   1.5460   2.2710   2.3057
     2.3115   2.3231   2.3518   2.3612   3.1557   4.6192   4.6326   4.6399
     4.6620   4.6746   5.2203   5.8145   6.1752   6.1775   6.2219   6.2269
     6.2435   6.2482   6.3636   6.9079

[...]

          k = 0.4000-0.4619 0.0000 ( 93512 PWs)   bands (ev):

   -19.8664 -17.6447  -9.8196  -6.5177  -6.5131  -6.2861  -5.9186  -5.5994
    -5.2602  -5.1645  -4.7863  -4.7328  -4.6927  -4.5965  -4.5637  -4.4554
    -4.4509  -4.3495  -4.3413  -4.2405  -4.2299  -4.2223  -4.1879  -4.1755
    -4.1642  -4.1563  -4.0321  -4.0175  -4.0014  -3.9737  -3.9594  -3.8908
    -3.7994  -3.7576  -3.7034  -3.6191  -3.6045  -3.5959  -3.5877  -3.5591
    -3.4804  -3.4624  -3.3678  -3.3641  -3.1897  -3.1720  -3.1623  -3.0678
    -3.0246  -2.9826  -2.9611  -2.8629  -2.8305  -2.7917  -2.7706  -2.7593
    -2.7086  -2.6825  -2.6670  -2.6287  -2.5812  -2.5530  -2.5417  -2.5333
    -2.5160  -2.5107  -2.4638  -2.4444  -2.3949  -2.3035  -2.2845  -2.2553
    -2.2446  -2.1513  -2.1449  -2.0925  -2.0754  -2.0505  -2.0325  -2.0020
    -1.9823  -1.9200  -1.9054  -1.8951  -1.8612  -1.8350  -1.8125  -1.7638
    -1.7416  -1.7018  -1.6762  -1.6539  -1.6472  -1.5706  -1.5470  -1.4956
    -1.4724  -1.4510  -1.4358  -1.4237  -1.4018  -1.3948  -1.3591  -1.3546
    -1.3307  -1.3166  -1.3065  -1.2760  -1.2555  -1.2425  -1.2356  -1.2220
    -1.1985  -1.1786  -1.1668  -1.1302  -1.0017  -0.9339  -0.8876  -0.8345
    -0.8185  -0.7504  -0.7204  -0.7052  -0.6811  -0.6289  -0.6245  -0.5968
    -0.5838  -0.5663  -0.5428  -0.4909  -0.4607  -0.4443  -0.3990  -0.3894
    -0.3392  -0.3195  -0.2890  -0.2238  -0.1411  -0.1232  -0.0746  -0.0493
    -0.0193   0.0352   0.0505   0.0684   0.0858   0.0966   0.1213   0.1391
     0.1636   0.2297   0.2590   0.3038   0.3261   0.3284   0.3437   0.3665
     0.3775   0.4504   0.5189   0.5974   0.6184   0.6970   0.7246   0.7675
     0.7985   0.8251   0.8806   0.9226   0.9330   1.0009   1.0386   1.0762
     1.1103   1.1237   1.1403   1.1583   1.1908   1.2109   1.2276   1.2917
     1.3008   1.3174   1.3289   1.3579   1.3668   1.3791   1.4280   1.5292
     1.5469   1.5795   1.5812   1.5898   1.6344   1.6833   1.7622   1.8978
     2.1136   2.7206   2.7242   2.9376   2.9977   3.1039   3.1221   3.1480
     3.2623   3.7037   3.7399   3.7734   4.1990   4.2330   4.3160   4.3394
     4.3540   4.5738   4.6588   4.7403   4.8850   5.1517   5.1864   5.2828
     5.8009   5.8149   5.8470   6.1828

     the Fermi energy is     1.3476 ev

!    total energy              =  -27861.85871601 Ry

     total all-electron energy =  -1327024.082011 Ry
     estimated scf accuracy    <       0.00000035 Ry
     smearing contrib. (-TS)   =       0.00036459 Ry
     internal energy E=F+TS    =  -27861.85908060 Ry

     The total energy is F=E-TS. E is the sum of the following terms:
     one-electron contribution =  -29734.53059387 Ry
     hartree contribution      =   15167.27997871 Ry
     xc contribution           =    -912.53876493 Ry
     ewald contribution        =   13118.71603602 Ry
     one-center paw contrib.   =  -25500.78573653 Ry

     convergence has been achieved in  22 iterations

[...]

     Forces acting on atoms (cartesian axes, Ry/au):

     atom    1 type  1   force =    -0.00077748   -0.00096561   -0.00321181
     atom    2 type  1   force =     0.00017149   -0.00015293   -0.00348274
     atom    3 type  1   force =     0.00072722   -0.00078366   -0.00334687
     atom    4 type  1   force =     0.00039681    0.00113102   -0.00319245
     atom    5 type  1   force =    -0.00054311    0.00063896   -0.00315709
     atom    6 type  1   force =     0.00015988   -0.00008393   -0.00292683
     atom    7 type  1   force =    -0.00053183    0.00017717   -0.00845774
     atom    8 type  1   force =    -0.00081917    0.00014203   -0.00311856
     atom    9 type  1   force =     0.00091817   -0.00026826   -0.00349923
     atom   10 type  1   force =     0.00219051   -0.00112361    0.00928573
     atom   11 type  1   force =    -0.00190379   -0.00070742    0.00771674
     atom   12 type  1   force =     0.00048791    0.00035749    0.00149941
     atom   13 type  1   force =    -0.00018460   -0.00187403    0.00249142
     atom   14 type  1   force =     0.00061506   -0.00023321    0.00143549
     atom   15 type  1   force =     0.00003372   -0.00041089    0.00119893
     atom   16 type  1   force =     0.00161607    0.00137095    0.00284281
     atom   17 type  1   force =    -0.00016595    0.00225978    0.00778345
     atom   18 type  1   force =     0.00000815    0.00046784   -0.00034805
     atom   19 type  1   force =    -0.00016641    0.00016086   -0.00028966
     atom   20 type  1   force =    -0.00017267   -0.00015582    0.00009675
     atom   21 type  1   force =    -0.00035308    0.00016357   -0.00024065
     atom   22 type  1   force =    -0.00004512    0.00027801   -0.00017989
     atom   23 type  1   force =    -0.00042476    0.00032045   -0.00011882
     atom   24 type  1   force =    -0.00023972    0.00042766   -0.00022358
     atom   25 type  1   force =    -0.00024828   -0.00003581   -0.00021609
     atom   26 type  1   force =     0.00009536    0.00024810   -0.00000370
     atom   27 type  1   force =    -0.00015318    0.00006678   -0.00013118
     atom   28 type  1   force =    -0.00001395    0.00012625   -0.00011976
     atom   29 type  1   force =    -0.00022113    0.00009384   -0.00025287
     atom   30 type  1   force =     0.00014466    0.00028462    0.00054363
     atom   31 type  1   force =    -0.00011561    0.00001496    0.00013955
     atom   32 type  1   force =    -0.00039467    0.00007435    0.00025638
     atom   33 type  1   force =    -0.00021827    0.00009501    0.00059901
     atom   34 type  1   force =    -0.00022607    0.00016094    0.00060439
     atom   35 type  1   force =    -0.00022456    0.00036636    0.00014946
     atom   36 type  1   force =    -0.00016912   -0.00025032    0.00059521
     atom   37 type  2   force =     0.00015390    0.00004296    0.00042776
     atom   38 type  3   force =     0.00020393   -0.00371872   -0.00073519
     atom   39 type  4   force =     0.00065700   -0.00041130    0.00047421
     atom   40 type  4   force =     0.00021742   -0.00008157    0.00030282
     atom   41 type  2   force =     0.00004776   -0.00163399    0.00111241
     atom   42 type  4   force =    -0.00053253    0.00342114   -0.00230284

     Total force =     0.006360     Total SCF correction =     0.001561
     SCF correction compared to forces is large: reduce conv_thr to get better values

[...]

     negative rho (up, down):  1.408E-02 0.000E+00

     negative rho (up, down):  1.408E-02 0.000E+00
 BEEFens 2000 ensemble energies
             -0.611014943134627E+02
             -0.362980681820170E+01
             -0.159314112220000E+02
              0.432427733429267E+02
             -0.222661189858121E+02
             -0.206589442348260E+02
             -0.355453741512815E+02
             -0.871481048159025E+02
             -0.468146642487367E+02
             -0.475853603246048E+02
             -0.371670787928495E+02
              0.230843183229312E+01
              0.408154437447399E+01
              0.762518530280579E+01
              0.268493972653272E+01
              0.478162962768681E+02
             -0.210430363314878E+02
             -0.231446284239672E+02
              0.194111364122122E+02
             -0.113174043764179E+03
              0.540282044088647E+02
             -0.291289947258816E+02
             -0.338174439774085E+01
             -0.114922952488890E+02
             -0.885015059431828E+01
             -0.470350306647873E+01
              0.889030353491385E+02
             -0.188261212913515E+02
             -0.908516036296032E+01
             -0.522116599257775E+02
              0.820851360836355E+02
             -0.188152877576349E+02
             -0.377765953538316E+02
              0.250901971249908E+02
             -0.286515554897960E+01
              0.165436250590934E+02
             -0.486950592145718E+01
              0.108501664644725E+02
              0.290162917805889E+02
             -0.104006832689346E+03
              0.562259108703619E+02
              0.143234997922457E+02
             -0.176665733936881E+01
             -0.363905146046014E+02
              0.123940839090294E+02
             -0.147878359208035E+02
              0.401575722398704E+02
              0.367431316287556E+02
             -0.309866692748521E+02
             -0.277120171940946E+02
             -0.330200615374520E+02
             -0.354605624385532E+02
              0.137270519699996E+02
             -0.494561406752599E+02
              0.116621491124748E+02
              0.627403117870056E+02
              0.640159191417901E+02
              0.358249187648943E+02
              0.155538063181332E+02
              0.272541371733336E+02
[...]
             -0.711158437241552E+02
             -0.885037882184520E+00
             -0.245445672687250E+01
             -0.889491371155873E+01
             -0.178589385239616E+01
             -0.657451717702187E+02
             -0.211836564600666E+02
              0.545805309811583E+01
              0.905353042943767E+01
              0.472124919959681E+02
             -0.400393357048438E+02
              0.661602600517073E+02
             -0.427992689665161E+02
              0.211980832046810E+02
              0.353111533482520E+02

 BEEF-vdW xc energy contributions
           1 :   -787.939718628044
           2 :    723.583791120712
           3 :   -612.341288483551
           4 :    481.605253941810
           5 :   -358.982688677558
           6 :    264.244601569995
           7 :   -204.974411388497
           8 :    176.634050246762
           9 :   -166.582523426540
          10 :    160.190275859134
          11 :   -146.594243822302
          12 :    121.932373034624
          13 :   -89.2090374307581
          14 :    55.4109642999696
          15 :   -27.5427990719539
          16 :    9.37389264948411
          17 :  -0.145649565006920
          18 :   -4.49916530594385
          19 :    10.0502496591125
          20 :   -20.4261895545474
          21 :    36.2773644600362
          22 :   -54.9690535244664
          23 :    72.0865618486130
          24 :   -83.6415198881905
          25 :    87.8922434973665
          26 :   -85.9772189846905
          27 :    81.1650061331770
          28 :   -77.1753858791473
          29 :    76.4156891816112
          30 :   -78.9698425770791
          31 :   -86.3603610818278
          32 :   -66.1088341114976

     Writing output data file ./pwscf.save/

     General routines

     Parallel routines

   This run was terminated on:  15:25:28  28Sep2022

   JOB DONE.