     Program PWSCF v.6.7MaX starts on 26Sep2022 at 14:15: 4

     Reading input from och3-ensemble.in
Warning: card &CELL ignored
Warning: card / ignored

     Current dimensions of program PWSCF are:
     Max number of different atomic species (ntypx) = 10
     Max number of k-points (npk) =  40000
     Max angular momentum in pseudopotentials (lmaxx) =  3
     file Pt.pbe-n-kjpaw_psl.1.0.0.UPF: wavefunction(s)  6S 5D renormalized
     file O.pbe-nl-kjpaw_psl.1.0.0.UPF: wavefunction(s)  2S 2P renormalized
     file C.pbe-n-kjpaw_psl.1.0.0.UPF: wavefunction(s)  2S 2P renormalized
     file H.pbe-kjpaw_psl.1.0.0.UPF: wavefunction(s)  1S renormalized

     IMPORTANT: XC functional enforced from input :
     Exchange-correlation= BEEF-VDW
                           (   1   4  43  14   2   0   0)
     Any further DFT definition will be discarded
     Please, verify this is what you really want

     Subspace diagonalization in iterative solution of the eigenvalue problem:
     a serial algorithm will be used

     bravais-lattice index     =            0
     lattice parameter (alat)  =      16.0349  a.u.
     unit-cell volume          =   11388.8270 (a.u.)^3
     number of atoms/cell      =           41
     number of atomic types    =            4
     number of electrons       =       373.00
     number of Kohn-Sham states=          224
     kinetic-energy cutoff     =      60.0000  Ry
     charge density cutoff     =     240.0000  Ry
     scf convergence threshold =      1.0E-06
     mixing beta               =       0.7000
     number of iterations used =            8  local-TF  mixing
     Exchange-correlation= BEEF-VDW
                           (   1   4  43  14   2   0   0)

     celldm(1)=  16.034858  celldm(2)=   0.000000  celldm(3)=   0.000000
     celldm(4)=   0.000000  celldm(5)=   0.000000  celldm(6)=   0.000000

     crystal axes: (cart. coord. in units of alat)
               a(1) = (   1.000000   0.000000   0.000000 )
               a(2) = (   0.500000   0.866025   0.000000 )
               a(3) = (   0.000000   0.000000   3.189723 )

     reciprocal axes: (cart. coord. in units 2 pi/alat)
               b(1) = (  1.000000 -0.577350  0.000000 )
               b(2) = (  0.000000  1.154701  0.000000 )
               b(3) = (  0.000000  0.000000  0.313507 )

     PseudoPot. # 1 for Pt read from file:
     /users/bkreitz1/quantum-espresso/potentials/Pt.pbe-n-kjpaw_psl.1.0.0.UPF
     MD5 check sum: 04dc8a03c51ece93fc7b5889c2958091
     Pseudo is Projector augmented-wave + core cor, Zval = 10.0
     Generated using 'atomic' code by A. Dal Corso  v.6.7MaX
     Shape of augmentation charge: PSQ
     Using radial grid of 1277 points,  6 beta functions with:
                l(1) =   0
                l(2) =   0
                l(3) =   1
                l(4) =   1
                l(5) =   2
                l(6) =   2
     Q(r) pseudized with 0 coefficients

     PseudoPot. # 2 for O  read from file:
     /users/bkreitz1/quantum-espresso/potentials/O.pbe-nl-kjpaw_psl.1.0.0.UPF
     MD5 check sum: eef08af8b58d9ec80f8fdb78829eb7cf
     Pseudo is Projector augmented-wave + core cor, Zval =  6.0
     Generated using 'atomic' code by A. Dal Corso  v.6.7MaX
     Shape of augmentation charge: PSQ
     Using radial grid of 1095 points,  4 beta functions with:
                l(1) =   0
                l(2) =   0
                l(3) =   1
                l(4) =   1
     Q(r) pseudized with 0 coefficients

     PseudoPot. # 3 for C  read from file:
     /users/bkreitz1/quantum-espresso/potentials/C.pbe-n-kjpaw_psl.1.0.0.UPF
     MD5 check sum: a169b0ebad56f5ec0d79c4633f80bf22
     Pseudo is Projector augmented-wave + core cor, Zval =  4.0
     Generated using 'atomic' code by A. Dal Corso  v.6.7MaX
     Shape of augmentation charge: PSQ
     Using radial grid of 1073 points,  4 beta functions with:
                l(1) =   0
                l(2) =   0
                l(3) =   1
                l(4) =   1
     Q(r) pseudized with 0 coefficients

     PseudoPot. # 4 for H  read from file:
     /users/bkreitz1/quantum-espresso/potentials/H.pbe-kjpaw_psl.1.0.0.UPF
     MD5 check sum: ae98473e6dc62675f0d0baffdab24f65
     Pseudo is Projector augmented-wave, Zval =  1.0
     Generated using 'atomic' code by A. Dal Corso  v.6.7MaX
     Shape of augmentation charge: PSQ
     Using radial grid of  929 points,  2 beta functions with:
                l(1) =   0
                l(2) =   0
     Q(r) pseudized with 0 coefficients

     atomic species   valence    mass     pseudopotential
        Pt            10.00   195.08400     Pt( 1.00)
        O              6.00    15.99900     O ( 1.00)
        C              4.00    12.01100     C ( 1.00)
        H              1.00     1.00800     H ( 1.00)

     No symmetry found

   Cartesian axes

     site n.     atom                  positions (alat units)
         1           Pt  tau(   1) = (   0.0000000   0.0000000   1.0017346  )
         2           Pt  tau(   2) = (   0.3333333   0.0000000   1.0017346  )
         3           Pt  tau(   3) = (   0.6666667   0.0000000   1.0017346  )
         4           Pt  tau(   4) = (   0.1666667   0.2886751   1.0017346  )
         5           Pt  tau(   5) = (   0.5000000   0.2886751   1.0017346  )
         6           Pt  tau(   6) = (   0.8333333   0.2886751   1.0017346  )
         7           Pt  tau(   7) = (   0.3333333   0.5773503   1.0017346  )
         8           Pt  tau(   8) = (   0.6666667   0.5773503   1.0017346  )
         9           Pt  tau(   9) = (   1.0000000   0.5773503   1.0017346  )
        10           Pt  tau(  10) = (   0.1666667   0.0962250   1.2739001  )
        11           Pt  tau(  11) = (   0.5000000   0.0962250   1.2739001  )
        12           Pt  tau(  12) = (   0.8333333   0.0962250   1.2739001  )
        13           Pt  tau(  13) = (   0.3333333   0.3849002   1.2739001  )
        14           Pt  tau(  14) = (   0.6666667   0.3849002   1.2739001  )
        15           Pt  tau(  15) = (   1.0000000   0.3849002   1.2739001  )
        16           Pt  tau(  16) = (   0.5000000   0.6735753   1.2739001  )
        17           Pt  tau(  17) = (   0.8333333   0.6735753   1.2739001  )
        18           Pt  tau(  18) = (   1.1666667   0.6735753   1.2739001  )
        19           Pt  tau(  19) = (   0.0005619   0.1921234   1.5418185  )
        20           Pt  tau(  20) = (   0.3327636   0.1921343   1.5417924  )
        21           Pt  tau(  21) = (   0.6666504   0.1917332   1.5413052  )
        22           Pt  tau(  22) = (   0.1666590   0.4797627   1.5468617  )
        23           Pt  tau(  23) = (   0.4993496   0.4815004   1.5413032  )
        24           Pt  tau(  24) = (   0.8339512   0.4815013   1.5413198  )
        25           Pt  tau(  25) = (   0.3345087   0.7705055   1.5468558  )
        26           Pt  tau(  26) = (   0.6666535   0.7704687   1.5417963  )
        27           Pt  tau(  27) = (   0.9987807   0.7705229   1.5468932  )
        28           Pt  tau(  28) = (  -0.0126253  -0.0073000   1.8145077  )
        29           Pt  tau(  29) = (   0.3459614  -0.0072832   1.8144905  )
        30           Pt  tau(  30) = (   0.6666707   0.0004217   1.8209817  )
        31           Pt  tau(  31) = (   0.1666778   0.3032360   1.8145071  )
        32           Pt  tau(  32) = (   0.5019779   0.2898257   1.8135196  )
        33           Pt  tau(  33) = (   0.8313539   0.2898079   1.8135429  )
        34           Pt  tau(  34) = (   0.3336731   0.5771439   1.8210089  )
        35           Pt  tau(  35) = (   0.6666504   0.5750472   1.8135203  )
        36           Pt  tau(  36) = (   0.9996543   0.5771403   1.8209973  )
        37           O   tau(  37) = (   0.1669125   0.0959929   1.9776876  )
        38           C   tau(  38) = (   0.1673222   0.0956594   2.1473842  )
        39           H   tau(  39) = (   0.6674557   0.8397470   2.1886940  )
        40           H   tau(  40) = (   0.2728857   0.1566437   2.1887612  )
        41           H   tau(  41) = (   1.0618022   0.1564653   2.1903477  )

     number of k points=    13  Marzari-Vanderbilt smearing, width (Ry)=  0.0200
                       cart. coord. in units 2pi/alat
        k(    1) = (   0.0000000   0.0000000   0.0000000), wk =   0.0800000
        k(    2) = (   0.0000000   0.2309401   0.0000000), wk =   0.1600000
        k(    3) = (   0.0000000   0.4618802   0.0000000), wk =   0.1600000
        k(    4) = (   0.2000000  -0.1154701   0.0000000), wk =   0.1600000
        k(    5) = (   0.2000000   0.1154701   0.0000000), wk =   0.1600000
        k(    6) = (   0.2000000   0.3464102   0.0000000), wk =   0.1600000
        k(    7) = (   0.2000000  -0.5773503   0.0000000), wk =   0.1600000
        k(    8) = (   0.2000000  -0.3464102   0.0000000), wk =   0.1600000
        k(    9) = (   0.4000000  -0.2309401   0.0000000), wk =   0.1600000
        k(   10) = (   0.4000000  -0.0000000   0.0000000), wk =   0.1600000
        k(   11) = (   0.4000000   0.2309401   0.0000000), wk =   0.1600000
        k(   12) = (   0.4000000  -0.6928203   0.0000000), wk =   0.1600000
        k(   13) = (   0.4000000  -0.4618802   0.0000000), wk =   0.1600000

     Check: negative core charge=   -0.000001

     Initial potential from superposition of free atoms

     starting charge  372.99382, renormalised to  373.00000

     negative rho (up, down):  1.160E-02 0.000E+00

     %%%%%%%%%%%%%%%%%%%%%%%%%%%%%%%%%%%%%%%%%%%%%%%%%%%%%%%%%%%%%%%%%%%%%%%%
     %                                                                      %
     % You are using vdW-DF, which was implemented by the Thonhauser group. %
     % Please cite the following two papers that made this development      %
     % possible and the two reviews that describe the various versions:     %
     %                                                                      %
     %   T. Thonhauser et al., PRL 115, 136402 (2015).                      %
     %   T. Thonhauser et al., PRB 76, 125112 (2007).                       %
     %   K. Berland et al., Rep. Prog. Phys. 78, 066501 (2015).             %
     %   D.C. Langreth et al., J. Phys.: Condens. Matter 21, 084203 (2009). %
     %                                                                      %
     %                                                                      %
     % If you are calculating the stress with vdW-DF, please also cite:     %
     %                                                                      %
     %   R. Sabatini et al., J. Phys.: Condens. Matter 24, 424209 (2012).   %
     %                                                                      %
     %%%%%%%%%%%%%%%%%%%%%%%%%%%%%%%%%%%%%%%%%%%%%%%%%%%%%%%%%%%%%%%%%%%%%%%%

     Starting wfcs are  335 randomized atomic wfcs
     Checking if some PAW data can be deallocated...

     Self-consistent Calculation

     iteration #  1     ecut=    60.00 Ry     beta= 0.70
     Davidson diagonalization with overlap
     ethr =  1.00E-02,  avg # of iterations =  2.5

     Threshold (ethr) on eigenvalues was too large:
     Diagonalizing with lowered threshold

     Davidson diagonalization with overlap
     ethr =  5.79E-04,  avg # of iterations =  5.0

[...]

     total energy              =  -27819.11422763 Ry
     estimated scf accuracy    <       2.35881381 Ry

[...]

     iteration #  4     ecut=    60.00 Ry     beta= 0.70
     Davidson diagonalization with overlap
     c_bands:  1 eigenvalues not converged
     c_bands:  1 eigenvalues not converged
     c_bands:  1 eigenvalues not converged
     ethr =  6.47E-05,  avg # of iterations = 10.8

[...]

     iteration #  9     ecut=    60.00 Ry     beta= 0.70
     Davidson diagonalization with overlap
     c_bands:  1 eigenvalues not converged
     c_bands:  1 eigenvalues not converged
     c_bands:  1 eigenvalues not converged
     c_bands:  1 eigenvalues not converged
     c_bands:  1 eigenvalues not converged
     c_bands:  1 eigenvalues not converged
     ethr =  5.76E-07,  avg # of iterations = 10.9

[...]

     total energy              =  -27819.37170017 Ry
     estimated scf accuracy    <       0.00000181 Ry

     iteration # 20     ecut=    60.00 Ry     beta= 0.70
     Davidson diagonalization with overlap
     ethr =  4.84E-10,  avg # of iterations =  1.2

[...]

     End of self-consistent calculation

          k = 0.0000 0.0000 0.0000 ( 89383 PWs)   bands (ev):

   -18.7944 -10.4715  -6.8798  -5.8094  -5.3343  -5.0038  -4.9909  -4.4755
    -4.4514  -4.4512  -4.4451  -4.4327  -4.4293  -4.4276  -4.3200  -3.9155
    -3.9154  -3.9074  -3.9062  -3.8828  -3.8320  -3.5055  -3.5038  -3.4421
    -3.4418  -3.4131  -3.3638  -3.2307  -3.2306  -3.2267  -3.2262  -3.1939
    -3.1390  -3.0546  -3.0546  -3.0082  -3.0082  -2.9911  -2.9766  -2.9764
    -2.9627  -2.9310  -2.9202  -2.9201  -2.8238  -2.4557  -2.3995  -2.3988
    -2.3497  -2.3497  -2.3411  -2.3171  -2.3171  -2.2661  -2.1969  -2.1490
    -2.1487  -2.0688  -2.0686  -1.9014  -1.8998  -1.5966  -1.5960  -1.5847
    -1.5453  -1.5452  -1.4837  -1.4575  -1.4049  -1.4047  -1.3613  -1.3613
    -1.3463  -1.3307  -1.3177  -1.3175  -1.3173  -1.2907  -1.2628  -1.2532
    -1.2531  -1.2469  -1.2466  -1.1422  -1.1408  -1.1408  -1.1123  -1.1122
    -1.0957  -0.9743  -0.9495  -0.9439  -0.9439  -0.9292  -0.9290  -0.8553
    -0.8550  -0.7903  -0.7764  -0.7764  -0.6804  -0.6804  -0.6465  -0.6322
    -0.6312  -0.5712  -0.5710  -0.5218  -0.5217  -0.5111  -0.4665  -0.4655
    -0.4641  -0.3599  -0.0658  -0.0657  -0.0568  -0.0128  -0.0125   0.0039
     0.0313   0.0314   0.1212   0.1545   0.1551   0.1648   0.1649   0.2047
     0.2705   0.2707   0.3305   0.3569   0.4124   0.4139   0.4842   0.4844
     0.4935   0.5083   0.5084   0.6774   0.7453   0.7525   0.7526   0.8004
     0.8006   0.8189   0.8191   0.8946   0.9074   0.9234   0.9239   1.0167
     1.0168   1.0214   1.0429   1.1313   1.1317   1.1790   1.1790   1.2016
     1.2145   1.2146   1.2276   1.2396   1.2397   1.2458   1.3430   1.3435
     1.3436   1.3511   1.3512   1.4143   1.4314   1.4314   1.4451   1.4453
     1.4623   1.4954   1.4958   1.4985   1.5680   1.5680   1.5704   1.5838
     1.6019   1.6020   1.6498   1.6499   1.6878   1.6882   1.7076   1.7154
     1.7537   1.7541   1.9319   1.9320   1.9904   2.0335   2.0335   2.0340
     2.0942   2.0948   2.1582   2.8302   2.8971   2.8971   2.9012   3.1077
     3.1088   3.7637   5.2282   5.2284   5.2303   5.3401   5.3413   5.6218
     5.9439   6.6563   6.8159   6.8159   6.8238   6.8578   6.8578   6.8832

[...]

          k = 0.4000-0.4619 0.0000 ( 89386 PWs)   bands (ev):

   -18.7943 -10.4703  -5.9619  -5.9165  -5.5653  -5.3053  -4.9977  -4.9543
    -4.6165  -4.5598  -4.1334  -4.1157  -3.9937  -3.9657  -3.8533  -3.8480
    -3.7497  -3.7449  -3.6827  -3.6136  -3.5958  -3.5886  -3.5779  -3.5727
    -3.4976  -3.4507  -3.4109  -3.3934  -3.3828  -3.3717  -3.3161  -3.2090
    -3.1427  -3.0858  -3.0629  -3.0376  -3.0223  -2.9893  -2.9273  -2.8837
    -2.8457  -2.7698  -2.7492  -2.6056  -2.5898  -2.5591  -2.4813  -2.4680
    -2.3994  -2.3811  -2.3138  -2.2825  -2.2283  -2.2025  -2.1611  -2.1466
    -2.1132  -2.0759  -2.0541  -2.0254  -1.9837  -1.9689  -1.9561  -1.9268
    -1.9159  -1.8885  -1.8564  -1.8311  -1.8059  -1.7301  -1.6920  -1.6434
    -1.6355  -1.5666  -1.5083  -1.4819  -1.4719  -1.4449  -1.4402  -1.3883
    -1.3599  -1.3036  -1.2978  -1.2503  -1.2135  -1.1939  -1.1878  -1.1165
    -1.0802  -1.0587  -1.0530  -1.0351  -0.9621  -0.9207  -0.9153  -0.8755
    -0.8524  -0.8308  -0.8157  -0.7869  -0.7797  -0.7610  -0.7428  -0.7143
    -0.6863  -0.6709  -0.6573  -0.6445  -0.6293  -0.6091  -0.5998  -0.5630
    -0.5471  -0.5390  -0.3995  -0.3337  -0.3152  -0.3121  -0.2156  -0.1958
    -0.1353  -0.1013  -0.0807  -0.0512  -0.0196   0.0003   0.0052   0.0352
     0.0644   0.0889   0.1240   0.1721   0.2116   0.2517   0.2644   0.2842
     0.3240   0.3757   0.4596   0.5166   0.5175   0.5824   0.6040   0.6303
     0.6467   0.6802   0.6988   0.7190   0.7240   0.7857   0.8307   0.8471
     0.8627   0.9119   0.9264   0.9472   0.9856   1.0279   1.0530   1.1345
     1.1578   1.2258   1.2734   1.3191   1.3937   1.4002   1.4377   1.4809
     1.5144   1.5200   1.5913   1.6566   1.6846   1.6917   1.7369   1.7527
     1.7601   1.7873   1.8172   1.8475   1.8882   1.9077   1.9138   1.9475
     1.9692   1.9785   2.0288   2.0602   2.1421   2.1637   2.1713   2.2056
     2.2177   2.2544   2.2736   2.3645   2.4735   2.5955   3.3238   3.3327
     3.5525   3.5729   3.6552   3.7263   3.7859   3.8902   4.2381   4.3356
     4.3826   4.7844   4.8236   4.9083   4.9856   5.0554   5.1794   5.2542
     5.3009   5.4428   5.7036   5.8200   6.0199   6.2960   6.4227   6.4606

     the Fermi energy is     1.9592 ev

!    total energy              =  -27819.37169963 Ry

     total all-electron energy =  -1326872.748100 Ry
     estimated scf accuracy    <       0.00000053 Ry
     smearing contrib. (-TS)   =       0.00243412 Ry
     internal energy E=F+TS    =  -27819.37413375 Ry

     The total energy is F=E-TS. E is the sum of the following terms:
     one-electron contribution =  -27452.38616457 Ry
     hartree contribution      =   14030.87295115 Ry
     xc contribution           =    -904.94360493 Ry
     ewald contribution        =   11997.75972965 Ry
     one-center paw contrib.   =  -25490.67704506 Ry

     convergence has been achieved in  20 iterations

[...]

     Forces acting on atoms (cartesian axes, Ry/au):

     atom    1 type  1   force =    -0.00093255   -0.00056823   -0.00308407
     atom    2 type  1   force =     0.00093109   -0.00053839   -0.00309449
     atom    3 type  1   force =     0.00000622    0.00063008   -0.00542031
     atom    4 type  1   force =     0.00002538    0.00105257   -0.00311562
     atom    5 type  1   force =     0.00089530    0.00051338   -0.00436290
     atom    6 type  1   force =    -0.00091913    0.00048748   -0.00437980
     atom    7 type  1   force =     0.00059851   -0.00031894   -0.00544885
     atom    8 type  1   force =    -0.00003261   -0.00102668   -0.00436927
     atom    9 type  1   force =    -0.00055994   -0.00030045   -0.00547449
     atom   10 type  1   force =     0.00001005   -0.00001502    0.00114651
     atom   11 type  1   force =     0.00107699   -0.00229645    0.00165268
     atom   12 type  1   force =    -0.00110359   -0.00231019    0.00165177
     atom   13 type  1   force =    -0.00141600    0.00207061    0.00162518
     atom   14 type  1   force =    -0.00004845   -0.00001120   -0.00080677
     atom   15 type  1   force =     0.00143726    0.00206261    0.00167082
     atom   16 type  1   force =    -0.00254091    0.00021566    0.00161814
     atom   17 type  1   force =     0.00252183    0.00025449    0.00166583
     atom   18 type  1   force =     0.00000707    0.00004034    0.02439624
     atom   19 type  1   force =    -0.00001212    0.00000217   -0.00014275
     atom   20 type  1   force =     0.00000965    0.00000055   -0.00013052
     atom   21 type  1   force =     0.00000966   -0.00001447    0.00007446
     atom   22 type  1   force =    -0.00000700    0.00007156   -0.00017661
     atom   23 type  1   force =     0.00000539   -0.00000474    0.00007386
     atom   24 type  1   force =     0.00000589   -0.00001023    0.00005678
     atom   25 type  1   force =    -0.00006735   -0.00005480   -0.00016752
     atom   26 type  1   force =     0.00000093   -0.00003581   -0.00013561
     atom   27 type  1   force =     0.00007606   -0.00006218   -0.00017799
     atom   28 type  1   force =    -0.00016688   -0.00009946   -0.00027170
     atom   29 type  1   force =     0.00030977   -0.00019759   -0.00038819
     atom   30 type  1   force =     0.00000333    0.00003896    0.00026228
     atom   31 type  1   force =    -0.00001175    0.00019910   -0.00026966
     atom   32 type  1   force =    -0.00003042   -0.00003485    0.00050098
     atom   33 type  1   force =     0.00003587   -0.00003285    0.00050442
     atom   34 type  1   force =     0.00005177   -0.00002728    0.00024203
     atom   35 type  1   force =     0.00000695    0.00003774    0.00049787
     atom   36 type  1   force =    -0.00005320   -0.00003959    0.00025990
     atom   37 type  2   force =    -0.00107329    0.00063913    0.00248350
     atom   38 type  3   force =    -0.00245278    0.00156152    0.00527905
     atom   39 type  4   force =     0.00036355    0.00011834   -0.00051087
     atom   40 type  4   force =     0.00011711   -0.00033925   -0.00041203
     atom   41 type  4   force =     0.00292233   -0.00165765   -0.00332227

     Total force =     0.008291     Total SCF correction =     0.002101
     SCF correction compared to forces is large: reduce conv_thr to get better values

[...]

     negative rho (up, down):  1.273E-02 0.000E+00

     negative rho (up, down):  1.273E-02 0.000E+00
 BEEFens 2000 ensemble energies
             -0.605560819610043E+02
             -0.359858182498013E+01
             -0.158082315619164E+02
              0.428404048425034E+02
             -0.220790016651142E+02
             -0.205074803231233E+02
             -0.351371846452182E+02
             -0.863021861963208E+02
             -0.464760113686324E+02
             -0.472175992425964E+02
             -0.368477258960133E+02
              0.226050153737551E+01
              0.406385740755644E+01
              0.763934844989811E+01
              0.264171207000169E+01
              0.474124058512220E+02
             -0.208514345189536E+02
             -0.230315790929699E+02
              0.192465710048854E+02
             -0.112197216377255E+03
              0.535178182786828E+02
             -0.289515933799278E+02
             -0.332073585997511E+01
             -0.113949054572376E+02
             -0.885958207297449E+01
             -0.464681154983083E+01
              0.881330918955894E+02
             -0.186425268760499E+02
             -0.899988647654970E+01
             -0.517403038324992E+02
              0.814605732599664E+02
             -0.187399379531675E+02
             -0.374127346495618E+02
              0.249054685979194E+02
             -0.283030539393195E+01
              0.163277484186773E+02
             -0.487966033455649E+01
              0.108301446990360E+02
              0.287417853522308E+02
             -0.103111784044107E+03
              0.557403451108135E+02
              0.142250662521721E+02
             -0.168064652792657E+01
             -0.361037650048640E+02
              0.123000381312118E+02
             -0.146165821231021E+02
              0.397278988743753E+02
              0.364291211673096E+02
             -0.307952915194296E+02
             -0.274411585781842E+02
             -0.327730750399476E+02
             -0.351508396673776E+02
              0.135805973692965E+02
             -0.489946580831435E+02
              0.115175544151499E+02
              0.622097617874248E+02
              0.633732972764686E+02
              0.355314442037364E+02
              0.153948447375894E+02
              0.269843053333502E+02
[...]
             -0.704633294010754E+02
             -0.916119147103473E+00
             -0.247965447409742E+01
             -0.880159838686836E+01
             -0.180744688306697E+01
             -0.651693349521609E+02
             -0.210673983062542E+02
              0.536222058052344E+01
              0.895201133266031E+01
              0.467787711768483E+02
             -0.396825093973535E+02
              0.656638529481534E+02
             -0.424523778139914E+02
              0.209788556549799E+02
              0.349369325430505E+02

 BEEF-vdW xc energy contributions
           1 :   -781.536150294868
           2 :    718.153585962742
           3 :   -608.340747917450
           4 :    478.947286450313
           5 :   -357.323451808459
           6 :    263.243269199754
           7 :   -204.402723889502
           8 :    176.370226151697
           9 :   -166.566031294006
          10 :    160.380028819448
          11 :   -146.935638265564
          12 :    122.342035347627
          13 :   -89.5916272357853
          14 :    55.6950236744616
          15 :   -27.7032331387027
          16 :    9.42461533799758
          17 :  -0.118671328630853
          18 :   -4.56572696602530
          19 :    10.1168994553317
          20 :   -20.4607550877346
          21 :    36.2691315283516
          22 :   -54.9396644123335
          23 :    72.0870502006550
          24 :   -83.7322055254915
          25 :    88.1174235623417
          26 :   -86.3422973005650
          27 :    81.6253625423715
          28 :   -77.6469753879888
          29 :    76.8031616569845
          30 :   -79.1948886226552
          31 :   -85.6070215022546
          32 :   -65.6299950751012

     Writing output data file ./pwscf.save/

     General routines

     Parallel routines

   This run was terminated on:  18:19:16  26Sep2022

   JOB DONE.