     Program PWSCF v.6.7MaX starts on  3Jan2023 at 22:49:27

     Reading input from ochch2-ensemble.in
Warning: card &CELL ignored
Warning: card / ignored

     Current dimensions of program PWSCF are:
     Max number of different atomic species (ntypx) = 10
     Max number of k-points (npk) =  40000
     Max angular momentum in pseudopotentials (lmaxx) =  3
     file Pt.pbe-n-kjpaw_psl.1.0.0.UPF: wavefunction(s)  6S 5D renormalized
     file O.pbe-nl-kjpaw_psl.1.0.0.UPF: wavefunction(s)  2S 2P renormalized
     file C.pbe-n-kjpaw_psl.1.0.0.UPF: wavefunction(s)  2S 2P renormalized
     file H.pbe-kjpaw_psl.1.0.0.UPF: wavefunction(s)  1S renormalized

     IMPORTANT: XC functional enforced from input :
     Exchange-correlation= BEEF-VDW
                           (   1   4  43  14   2   0   0)
     Any further DFT definition will be discarded
     Please, verify this is what you really want

     Subspace diagonalization in iterative solution of the eigenvalue problem:
     a serial algorithm will be used

     bravais-lattice index     =            0
     lattice parameter (alat)  =      16.0349  a.u.
     unit-cell volume          =   11773.6413 (a.u.)^3
     number of atoms/cell      =           42
     number of atomic types    =            4
     number of electrons       =       377.00
     number of Kohn-Sham states=          227
     kinetic-energy cutoff     =      60.0000  Ry
     charge density cutoff     =     240.0000  Ry
     scf convergence threshold =      1.0E-06
     mixing beta               =       0.7000
     number of iterations used =            8  local-TF  mixing
     Exchange-correlation= BEEF-VDW
                           (   1   4  43  14   2   0   0)

     celldm(1)=  16.034858  celldm(2)=   0.000000  celldm(3)=   0.000000
     celldm(4)=   0.000000  celldm(5)=   0.000000  celldm(6)=   0.000000

     crystal axes: (cart. coord. in units of alat)
               a(1) = (   1.000000   0.000000   0.000000 )
               a(2) = (   0.500000   0.866025   0.000000 )
               a(3) = (   0.000000   0.000000   3.297500 )

     reciprocal axes: (cart. coord. in units 2 pi/alat)
               b(1) = (  1.000000 -0.577350  0.000000 )
               b(2) = (  0.000000  1.154701  0.000000 )
               b(3) = (  0.000000  0.000000  0.303260 )

     PseudoPot. # 1 for Pt read from file:
     /users/bkreitz1/quantum-espresso/potentials/Pt.pbe-n-kjpaw_psl.1.0.0.UPF
     MD5 check sum: 04dc8a03c51ece93fc7b5889c2958091
     Pseudo is Projector augmented-wave + core cor, Zval = 10.0
     Generated using 'atomic' code by A. Dal Corso  v.6.7MaX
     Shape of augmentation charge: PSQ
     Using radial grid of 1277 points,  6 beta functions with:
                l(1) =   0
                l(2) =   0
                l(3) =   1
                l(4) =   1
                l(5) =   2
                l(6) =   2
     Q(r) pseudized with 0 coefficients

     PseudoPot. # 2 for O  read from file:
     /users/bkreitz1/quantum-espresso/potentials/O.pbe-nl-kjpaw_psl.1.0.0.UPF
     MD5 check sum: eef08af8b58d9ec80f8fdb78829eb7cf
     Pseudo is Projector augmented-wave + core cor, Zval =  6.0
     Generated using 'atomic' code by A. Dal Corso  v.6.7MaX
     Shape of augmentation charge: PSQ
     Using radial grid of 1095 points,  4 beta functions with:
                l(1) =   0
                l(2) =   0
                l(3) =   1
                l(4) =   1
     Q(r) pseudized with 0 coefficients

     PseudoPot. # 3 for C  read from file:
     /users/bkreitz1/quantum-espresso/potentials/C.pbe-n-kjpaw_psl.1.0.0.UPF
     MD5 check sum: a169b0ebad56f5ec0d79c4633f80bf22
     Pseudo is Projector augmented-wave + core cor, Zval =  4.0
     Generated using 'atomic' code by A. Dal Corso  v.6.7MaX
     Shape of augmentation charge: PSQ
     Using radial grid of 1073 points,  4 beta functions with:
                l(1) =   0
                l(2) =   0
                l(3) =   1
                l(4) =   1
     Q(r) pseudized with 0 coefficients

     PseudoPot. # 4 for H  read from file:
     /users/bkreitz1/quantum-espresso/potentials/H.pbe-kjpaw_psl.1.0.0.UPF
     MD5 check sum: ae98473e6dc62675f0d0baffdab24f65
     Pseudo is Projector augmented-wave, Zval =  1.0
     Generated using 'atomic' code by A. Dal Corso  v.6.7MaX
     Shape of augmentation charge: PSQ
     Using radial grid of  929 points,  2 beta functions with:
                l(1) =   0
                l(2) =   0
     Q(r) pseudized with 0 coefficients

     atomic species   valence    mass     pseudopotential
        Pt            10.00   195.08400     Pt( 1.00)
        O              6.00    15.99900     O ( 1.00)
        C              4.00    12.01100     C ( 1.00)
        H              1.00     1.00800     H ( 1.00)

     No symmetry found

   Cartesian axes

     site n.     atom                  positions (alat units)
         1           Pt  tau(   1) = (   0.0000000   0.0000000   1.0017346  )
         2           Pt  tau(   2) = (   0.3333333   0.0000000   1.0017346  )
         3           Pt  tau(   3) = (   0.6666667   0.0000000   1.0017346  )
         4           Pt  tau(   4) = (   0.1666667   0.2886751   1.0017346  )
         5           Pt  tau(   5) = (   0.5000000   0.2886751   1.0017346  )
         6           Pt  tau(   6) = (   0.8333333   0.2886751   1.0017346  )
         7           Pt  tau(   7) = (   0.3333333   0.5773503   1.0017346  )
         8           Pt  tau(   8) = (   0.6666667   0.5773503   1.0017346  )
         9           Pt  tau(   9) = (   1.0000000   0.5773503   1.0017346  )
        10           Pt  tau(  10) = (   0.1666667   0.0962250   1.2739001  )
        11           Pt  tau(  11) = (   0.5000000   0.0962250   1.2739001  )
        12           Pt  tau(  12) = (   0.8333333   0.0962250   1.2739001  )
        13           Pt  tau(  13) = (   0.3333333   0.3849002   1.2739001  )
        14           Pt  tau(  14) = (   0.6666667   0.3849002   1.2739001  )
        15           Pt  tau(  15) = (   1.0000000   0.3849002   1.2739001  )
        16           Pt  tau(  16) = (   0.5000000   0.6735753   1.2739001  )
        17           Pt  tau(  17) = (   0.8333333   0.6735753   1.2739001  )
        18           Pt  tau(  18) = (   1.1666667   0.6735753   1.2739001  )
        19           Pt  tau(  19) = (  -0.0018596   0.1905237   1.5472866  )
        20           Pt  tau(  20) = (   0.3340820   0.1888457   1.5406231  )
        21           Pt  tau(  21) = (   0.6700138   0.1899469   1.5474031  )
        22           Pt  tau(  22) = (   0.1674928   0.4774665   1.5417049  )
        23           Pt  tau(  23) = (   0.5008603   0.4774480   1.5416889  )
        24           Pt  tau(  24) = (   0.8342080   0.4767430   1.5439905  )
        25           Pt  tau(  25) = (   0.3338524   0.7660985   1.5425486  )
        26           Pt  tau(  26) = (   0.6679204   0.7667820   1.5402867  )
        27           Pt  tau(  27) = (   1.0010838   0.7671348   1.5415248  )
        28           Pt  tau(  28) = (   0.0050580  -0.0122218   1.8137640  )
        29           Pt  tau(  29) = (   0.3356941  -0.0095389   1.8168782  )
        30           Pt  tau(  30) = (   0.6671311  -0.0112530   1.8180784  )
        31           Pt  tau(  31) = (   0.1715740   0.2791674   1.8151123  )
        32           Pt  tau(  32) = (   0.4996547   0.2789569   1.8148540  )
        33           Pt  tau(  33) = (   0.8362392   0.2744938   1.8306120  )
        34           Pt  tau(  34) = (   0.3353520   0.5672682   1.8161300  )
        35           Pt  tau(  35) = (   0.6677544   0.5697068   1.8132093  )
        36           Pt  tau(  36) = (   1.0033699   0.5701242   1.8132939  )
        37           O   tau(  37) = (   0.8319460   0.3199703   2.0686440  )
        38           C   tau(  38) = (   0.8191622   0.2173691   2.1848505  )
        39           C   tau(  39) = (   0.8324164   0.0580083   2.1847343  )
        40           H   tau(  40) = (   0.7946780   0.2779610   2.2959430  )
        41           H   tau(  41) = (   0.8172108  -0.0058647   2.2939402  )
        42           H   tau(  42) = (   0.8609192  -0.0088228   2.0808992  )

     number of k points=    13  Marzari-Vanderbilt smearing, width (Ry)=  0.0200
                       cart. coord. in units 2pi/alat
        k(    1) = (   0.0000000   0.0000000   0.0000000), wk =   0.0800000
        k(    2) = (   0.0000000   0.2309401   0.0000000), wk =   0.1600000
        k(    3) = (   0.0000000   0.4618802   0.0000000), wk =   0.1600000
        k(    4) = (   0.2000000  -0.1154701   0.0000000), wk =   0.1600000
        k(    5) = (   0.2000000   0.1154701   0.0000000), wk =   0.1600000
        k(    6) = (   0.2000000   0.3464102   0.0000000), wk =   0.1600000
        k(    7) = (   0.2000000  -0.5773503   0.0000000), wk =   0.1600000
        k(    8) = (   0.2000000  -0.3464102   0.0000000), wk =   0.1600000
        k(    9) = (   0.4000000  -0.2309401   0.0000000), wk =   0.1600000
        k(   10) = (   0.4000000  -0.0000000   0.0000000), wk =   0.1600000
        k(   11) = (   0.4000000   0.2309401   0.0000000), wk =   0.1600000
        k(   12) = (   0.4000000  -0.6928203   0.0000000), wk =   0.1600000
        k(   13) = (   0.4000000  -0.4618802   0.0000000), wk =   0.1600000

     Check: negative core charge=   -0.000002

     Initial potential from superposition of free atoms

     starting charge  376.99378, renormalised to  377.00000

     negative rho (up, down):  1.180E-02 0.000E+00

     %%%%%%%%%%%%%%%%%%%%%%%%%%%%%%%%%%%%%%%%%%%%%%%%%%%%%%%%%%%%%%%%%%%%%%%%
     %                                                                      %
     % You are using vdW-DF, which was implemented by the Thonhauser group. %
     % Please cite the following two papers that made this development      %
     % possible and the two reviews that describe the various versions:     %
     %                                                                      %
     %   T. Thonhauser et al., PRL 115, 136402 (2015).                      %
     %   T. Thonhauser et al., PRB 76, 125112 (2007).                       %
     %   K. Berland et al., Rep. Prog. Phys. 78, 066501 (2015).             %
     %   D.C. Langreth et al., J. Phys.: Condens. Matter 21, 084203 (2009). %
     %                                                                      %
     %                                                                      %
     % If you are calculating the stress with vdW-DF, please also cite:     %
     %                                                                      %
     %   R. Sabatini et al., J. Phys.: Condens. Matter 24, 424209 (2012).   %
     %                                                                      %
     %%%%%%%%%%%%%%%%%%%%%%%%%%%%%%%%%%%%%%%%%%%%%%%%%%%%%%%%%%%%%%%%%%%%%%%%

     Starting wfcs are  339 randomized atomic wfcs
     Checking if some PAW data can be deallocated...

     Self-consistent Calculation

     iteration #  1     ecut=    60.00 Ry     beta= 0.70
     Davidson diagonalization with overlap
     ethr =  1.00E-02,  avg # of iterations =  2.2

     Threshold (ethr) on eigenvalues was too large:
     Diagonalizing with lowered threshold

     Davidson diagonalization with overlap
     ethr =  7.73E-04,  avg # of iterations =  2.9

[...]

     total energy              =  -27838.11470105 Ry
     estimated scf accuracy    <       3.10679494 Ry

[...]

     iteration #  6     ecut=    60.00 Ry     beta= 0.70
     Davidson diagonalization with overlap
     c_bands:  1 eigenvalues not converged
     ethr =  1.26E-05,  avg # of iterations = 11.1

[...]

     iteration #  9     ecut=    60.00 Ry     beta= 0.70
     Davidson diagonalization with overlap
     c_bands:  1 eigenvalues not converged
     c_bands:  1 eigenvalues not converged
     ethr =  5.27E-07,  avg # of iterations =  9.8

[...]

     total energy              =  -27838.33526788 Ry
     estimated scf accuracy    <       0.00000129 Ry

     iteration # 20     ecut=    60.00 Ry     beta= 0.70
     Davidson diagonalization with overlap
     ethr =  3.42E-10,  avg # of iterations =  2.2

[...]

     End of self-consistent calculation

          k = 0.0000 0.0000 0.0000 ( 92543 PWs)   bands (ev):

   -19.2239 -11.8809  -7.9029  -7.2123  -5.9209  -5.4836  -5.0001  -4.8584
    -4.8301  -4.8109  -4.8076  -4.7965  -4.7884  -4.7753  -4.7589  -4.2586
    -4.2552  -4.2500  -4.2434  -4.2393  -4.2271  -3.8068  -3.7858  -3.7772
    -3.7757  -3.7704  -3.7562  -3.5824  -3.5758  -3.5633  -3.5602  -3.5581
    -3.5272  -3.3914  -3.3516  -3.3473  -3.3388  -3.3305  -3.3285  -3.3250
    -3.3142  -3.3118  -3.2978  -3.2828  -3.2628  -3.1570  -2.9844  -2.7147
    -2.7109  -2.7009  -2.6921  -2.6783  -2.6465  -2.6315  -2.6148  -2.6098
    -2.5701  -2.4861  -2.4805  -2.4013  -2.3999  -2.0009  -1.9054  -1.8993
    -1.8847  -1.8713  -1.8623  -1.8292  -1.7510  -1.7259  -1.7194  -1.7172
    -1.7057  -1.6910  -1.6743  -1.6708  -1.6597  -1.6474  -1.6406  -1.6360
    -1.6290  -1.6114  -1.6049  -1.5491  -1.5088  -1.4897  -1.4793  -1.4454
    -1.4371  -1.3442  -1.3180  -1.2887  -1.2812  -1.2660  -1.2554  -1.2430
    -1.2287  -1.1683  -1.1574  -1.1468  -1.1010  -1.0953  -1.0378  -1.0370
    -1.0003  -0.9959  -0.9778  -0.9441  -0.8724  -0.8522  -0.8416  -0.8248
    -0.8140  -0.7461  -0.5295  -0.4039  -0.3783  -0.3625  -0.3589  -0.3453
    -0.3416  -0.3315  -0.2821  -0.2790  -0.2637  -0.2393  -0.2145  -0.1798
    -0.1699  -0.0671  -0.0409  -0.0336   0.0077   0.0218   0.0611   0.0733
     0.1065   0.1362   0.1440   0.1484   0.1724   0.3436   0.3601   0.3820
     0.3853   0.3917   0.4092   0.4420   0.4818   0.6202   0.6321   0.6407
     0.6679   0.6765   0.7026   0.7697   0.7898   0.8055   0.8169   0.8205
     0.8340   0.8577   0.8581   0.8699   0.8717   0.8977   0.9230   0.9544
     0.9630   0.9744   0.9878   0.9895   1.0244   1.0371   1.0673   1.0726
     1.0920   1.0960   1.1239   1.1284   1.1437   1.1515   1.1577   1.2090
     1.2169   1.2304   1.2396   1.2411   1.2547   1.2995   1.3203   1.3284
     1.3363   1.3513   1.3676   1.4270   1.5136   1.5920   1.6324   1.6526
     1.6638   1.6672   1.6795   1.6925   1.7632   2.5175   2.5520   2.5692
     2.5794   2.6010   2.6349   3.3177   4.8754   4.8806   4.8923   4.9124
     4.9382   5.3872   5.9851   6.2283   6.4107   6.4282   6.4547   6.4804
     6.4860   6.4898   6.5368

[...]

          k = 0.4000-0.4619 0.0000 ( 92406 PWs)   bands (ev):

   -19.2239 -11.8810  -7.8943  -6.2651  -6.2437  -5.6628  -5.4784  -5.0363
    -5.0112  -4.9234  -4.4904  -4.4681  -4.3509  -4.3164  -4.2121  -4.2023
    -4.1051  -4.0881  -3.9894  -3.9844  -3.9720  -3.9491  -3.9244  -3.9180
    -3.9120  -3.7823  -3.7645  -3.7538  -3.7323  -3.7077  -3.6343  -3.5548
    -3.5215  -3.4715  -3.3775  -3.3664  -3.3516  -3.3410  -3.3196  -3.2794
    -3.2282  -3.1760  -3.1261  -3.1055  -2.9961  -2.9303  -2.9173  -2.8349
    -2.7929  -2.7453  -2.7241  -2.7117  -2.5969  -2.5709  -2.5346  -2.5138
    -2.4934  -2.4666  -2.4502  -2.4132  -2.3279  -2.3061  -2.2904  -2.2828
    -2.2693  -2.2589  -2.2471  -2.2076  -2.1794  -2.1050  -2.0526  -2.0155
    -1.9817  -1.8942  -1.8750  -1.8314  -1.8174  -1.7960  -1.7713  -1.7317
    -1.7231  -1.6743  -1.6462  -1.6308  -1.6050  -1.5798  -1.5639  -1.5162
    -1.4837  -1.4436  -1.4217  -1.4011  -1.3955  -1.3027  -1.2637  -1.2394
    -1.2192  -1.2085  -1.1886  -1.1503  -1.1371  -1.1167  -1.1090  -1.0761
    -1.0610  -1.0421  -1.0345  -1.0126  -0.9928  -0.9866  -0.9807  -0.9565
    -0.9524  -0.9053  -0.8722  -0.8520  -0.7773  -0.6567  -0.6037  -0.5804
    -0.5634  -0.4769  -0.4633  -0.4509  -0.4294  -0.3744  -0.3539  -0.3383
    -0.3216  -0.3043  -0.2527  -0.2240  -0.1929  -0.1618  -0.1241  -0.0921
    -0.0515  -0.0200   0.0562   0.1139   0.1654   0.1896   0.2071   0.2186
     0.2898   0.2990   0.3270   0.3446   0.3570   0.3924   0.4072   0.4244
     0.4905   0.5038   0.5452   0.5756   0.5866   0.6017   0.6271   0.6455
     0.7033   0.7684   0.8583   0.8881   0.9446   0.9793   1.0245   1.0357
     1.0592   1.1570   1.1699   1.1996   1.2272   1.2973   1.3368   1.3470
     1.3908   1.3935   1.4130   1.4203   1.4626   1.5047   1.5340   1.5543
     1.5706   1.6026   1.6081   1.6164   1.6453   1.6811   1.7788   1.7926
     1.8089   1.8209   1.8348   1.8823   1.9195   2.0105   2.1445   2.2476
     2.9700   2.9747   3.1991   3.2540   3.3528   3.3714   3.4067   3.5050
     3.9484   3.9820   3.9962   4.4471   4.4864   4.5424   4.5841   4.6042
     4.7610   4.8842   5.0053   5.1869   5.3763   5.4406   5.5389   6.0267
     6.0590   6.1046   6.3000

     the Fermi energy is     1.5976 ev

!    total energy              =  -27838.33526709 Ry

     total all-electron energy =  -1326949.475764 Ry
     estimated scf accuracy    <       0.00000071 Ry
     smearing contrib. (-TS)   =       0.00069181 Ry
     internal energy E=F+TS    =  -27838.33595890 Ry

     The total energy is F=E-TS. E is the sum of the following terms:
     one-electron contribution =  -29167.67657130 Ry
     hartree contribution      =   14885.60971199 Ry
     xc contribution           =    -909.56053525 Ry
     ewald contribution        =   12850.49320214 Ry
     one-center paw contrib.   =  -25497.20176649 Ry

     convergence has been achieved in  20 iterations

[...]

     Forces acting on atoms (cartesian axes, Ry/au):

     atom    1 type  1   force =     0.00086526    0.00045924   -0.00320321
     atom    2 type  1   force =     0.00022853   -0.00092175   -0.00890580
     atom    3 type  1   force =    -0.00120771    0.00044262   -0.00327861
     atom    4 type  1   force =     0.00010402   -0.00028957   -0.00298066
     atom    5 type  1   force =    -0.00029547   -0.00028398   -0.00294875
     atom    6 type  1   force =    -0.00015296    0.00079297   -0.00362865
     atom    7 type  1   force =    -0.00002577    0.00088146   -0.00305812
     atom    8 type  1   force =     0.00033947    0.00122575   -0.00435312
     atom    9 type  1   force =    -0.00068892    0.00165578   -0.00370564
     atom   10 type  1   force =    -0.00184868    0.00037178    0.00294027
     atom   11 type  1   force =     0.00231316   -0.00002233    0.00363598
     atom   12 type  1   force =     0.00031792    0.00104518    0.00947155
     atom   13 type  1   force =     0.00028387   -0.00041639    0.00146939
     atom   14 type  1   force =     0.00163615   -0.00250465    0.00650020
     atom   15 type  1   force =    -0.00094123   -0.00251680    0.00658401
     atom   16 type  1   force =    -0.00070609   -0.00073541    0.00119428
     atom   17 type  1   force =     0.00114283   -0.00069105   -0.00016135
     atom   18 type  1   force =     0.00085754   -0.00056296    0.00215684
     atom   19 type  1   force =     0.00035623    0.00001523    0.00065660
     atom   20 type  1   force =     0.00027785    0.00036304    0.00036622
     atom   21 type  1   force =    -0.00024071    0.00006515    0.00023190
     atom   22 type  1   force =     0.00021025    0.00013980   -0.00029194
     atom   23 type  1   force =    -0.00026862    0.00003958   -0.00036552
     atom   24 type  1   force =     0.00013564    0.00030327    0.00053516
     atom   25 type  1   force =     0.00015343   -0.00005748    0.00024697
     atom   26 type  1   force =    -0.00032107    0.00017039   -0.00010883
     atom   27 type  1   force =     0.00037011    0.00024555   -0.00012349
     atom   28 type  1   force =     0.00003799    0.00056423    0.00014183
     atom   29 type  1   force =    -0.00002179    0.00045721    0.00027562
     atom   30 type  1   force =     0.00005669   -0.00004698   -0.00010324
     atom   31 type  1   force =     0.00024395    0.00037771    0.00014688
     atom   32 type  1   force =    -0.00058016    0.00056596    0.00027705
     atom   33 type  1   force =     0.00017849    0.00031394   -0.00054526
     atom   34 type  1   force =     0.00007089    0.00046976   -0.00001193
     atom   35 type  1   force =     0.00033308    0.00035922   -0.00014803
     atom   36 type  1   force =    -0.00022956    0.00007512    0.00014031
     atom   37 type  2   force =     0.00022601    0.00023553    0.00092868
     atom   38 type  3   force =    -0.00161069   -0.00170123    0.00079683
     atom   39 type  3   force =    -0.00371347    0.00284559    0.00864197
     atom   40 type  4   force =    -0.00005469    0.00001002   -0.00032979
     atom   41 type  4   force =    -0.00043577    0.00072203    0.00027643
     atom   42 type  4   force =     0.00260399   -0.00446253   -0.00936303

     Total force =     0.014958     Total SCF correction =     0.001887
     SCF correction compared to forces is large: reduce conv_thr to get better values

[...]

     negative rho (up, down):  1.329E-02 0.000E+00

     negative rho (up, down):  1.329E-02 0.000E+00
 BEEFens 2000 ensemble energies
             -0.609003380842716E+02
             -0.362064353052506E+01
             -0.158751667094588E+02
              0.430971779056529E+02
             -0.221960362420266E+02
             -0.205901230286964E+02
             -0.354008007265695E+02
             -0.868283747651382E+02
             -0.466461261213460E+02
             -0.474167385120031E+02
             -0.370603992757928E+02
              0.231131014638119E+01
              0.407618884135647E+01
              0.760834083254383E+01
              0.266652078553773E+01
              0.476640487150560E+02
             -0.209504675978008E+02
             -0.230607075346691E+02
              0.193638002420046E+02
             -0.112792400565951E+03
              0.538412269105146E+02
             -0.290556673372056E+02
             -0.335905685896880E+01
             -0.114498022500814E+02
             -0.883164691117918E+01
             -0.465015178679991E+01
              0.885923893052956E+02
             -0.188038569957974E+02
             -0.903106362669530E+01
             -0.520385464549938E+02
              0.818000308892806E+02
             -0.187461447043794E+02
             -0.376335423301796E+02
              0.249944401775625E+02
             -0.285525732735761E+01
              0.164944888726060E+02
             -0.485899045233322E+01
              0.108214154982288E+02
              0.289553941567046E+02
             -0.103627938162513E+03
              0.560408413508417E+02
              0.142905213345270E+02
             -0.176418077870051E+01
             -0.362590697043010E+02
              0.123612204298674E+02
             -0.147527285587254E+02
              0.400057187607051E+02
              0.366133305427601E+02
             -0.308866499479553E+02
             -0.276093636594746E+02
             -0.329417599750334E+02
             -0.353492085299621E+02
              0.137051310967930E+02
             -0.492663906300151E+02
              0.116168424555813E+02
              0.625370191290865E+02
              0.638005590937819E+02
              0.357104575548942E+02
              0.154689703315798E+02
              0.271701700147013E+02
[...]
             -0.708794151508326E+02
             -0.867366040614911E+00
             -0.247556109414582E+01
             -0.886093480037187E+01
             -0.180062038369908E+01
             -0.655174604837023E+02
             -0.211007288290183E+02
              0.543154527994434E+01
              0.904392977111968E+01
              0.470609052385341E+02
             -0.399186292536941E+02
              0.659219780465256E+02
             -0.426626222782437E+02
              0.211358122283937E+02
              0.351739064678231E+02

 BEEF-vdW xc energy contributions
           1 :   -785.350356490324
           2 :    721.283753792866
           3 :   -610.446214950403
           4 :    480.091173308850
           5 :   -357.813237592827
           6 :    263.420521921412
           7 :   -204.505279782186
           8 :    176.490464317477
           9 :   -166.679614733414
          10 :    160.410992814300
          11 :   -146.828772000747
          12 :    122.109213040225
          13 :   -89.3084451701493
          14 :    55.4567254156269
          15 :   -27.5778996367228
          16 :    9.43158904992310
          17 :  -0.233222913375016
          18 :   -4.39826427684989
          19 :    9.96368002692930
          20 :   -20.3791978470687
          21 :    36.2835272151481
          22 :   -55.0289046304212
          23 :    72.1938498348771
          24 :   -83.7900732461386
          25 :    88.0794115159902
          26 :   -86.2040078312868
          27 :    81.4313495569384
          28 :   -77.4711448279745
          29 :    76.7160436677862
          30 :   -79.2375902373784
          31 :   -86.1188194222968
          32 :   -65.9486742524732

     Writing output data file ./pwscf.save/

     General routines

     Parallel routines

   This run was terminated on:   3: 2:29   4Jan2023

   JOB DONE.