     Program PWSCF v.6.7MaX starts on 26Sep2022 at 22: 6:16

     Reading input from oco2h2-ensemble.in
Warning: card &CELL ignored
Warning: card / ignored

     Current dimensions of program PWSCF are:
     Max number of different atomic species (ntypx) = 10
     Max number of k-points (npk) =  40000
     Max angular momentum in pseudopotentials (lmaxx) =  3
     file Pt.pbe-n-kjpaw_psl.1.0.0.UPF: wavefunction(s)  6S 5D renormalized
     file O.pbe-nl-kjpaw_psl.1.0.0.UPF: wavefunction(s)  2S 2P renormalized
     file C.pbe-n-kjpaw_psl.1.0.0.UPF: wavefunction(s)  2S 2P renormalized
     file H.pbe-kjpaw_psl.1.0.0.UPF: wavefunction(s)  1S renormalized

     IMPORTANT: XC functional enforced from input :
     Exchange-correlation= BEEF-VDW
                           (   1   4  43  14   2   0   0)
     Any further DFT definition will be discarded
     Please, verify this is what you really want

     Subspace diagonalization in iterative solution of the eigenvalue problem:
     a serial algorithm will be used

     bravais-lattice index     =            0
     lattice parameter (alat)  =      16.0349  a.u.
     unit-cell volume          =   11349.2012 (a.u.)^3
     number of atoms/cell      =           42
     number of atomic types    =            4
     number of electrons       =       384.00
     number of Kohn-Sham states=          230
     kinetic-energy cutoff     =      60.0000  Ry
     charge density cutoff     =     240.0000  Ry
     scf convergence threshold =      1.0E-06
     mixing beta               =       0.7000
     number of iterations used =            8  local-TF  mixing
     Exchange-correlation= BEEF-VDW
                           (   1   4  43  14   2   0   0)

     celldm(1)=  16.034858  celldm(2)=   0.000000  celldm(3)=   0.000000
     celldm(4)=   0.000000  celldm(5)=   0.000000  celldm(6)=   0.000000

     crystal axes: (cart. coord. in units of alat)
               a(1) = (   1.000000   0.000000   0.000000 )
               a(2) = (   0.500000   0.866025   0.000000 )
               a(3) = (   0.000000   0.000000   3.178625 )

     reciprocal axes: (cart. coord. in units 2 pi/alat)
               b(1) = (  1.000000 -0.577350  0.000000 )
               b(2) = (  0.000000  1.154701  0.000000 )
               b(3) = (  0.000000  0.000000  0.314601 )

     PseudoPot. # 1 for Pt read from file:
     /users/bkreitz1/quantum-espresso/potentials/Pt.pbe-n-kjpaw_psl.1.0.0.UPF
     MD5 check sum: 04dc8a03c51ece93fc7b5889c2958091
     Pseudo is Projector augmented-wave + core cor, Zval = 10.0
     Generated using 'atomic' code by A. Dal Corso  v.6.7MaX
     Shape of augmentation charge: PSQ
     Using radial grid of 1277 points,  6 beta functions with:
                l(1) =   0
                l(2) =   0
                l(3) =   1
                l(4) =   1
                l(5) =   2
                l(6) =   2
     Q(r) pseudized with 0 coefficients

     PseudoPot. # 2 for O  read from file:
     /users/bkreitz1/quantum-espresso/potentials/O.pbe-nl-kjpaw_psl.1.0.0.UPF
     MD5 check sum: eef08af8b58d9ec80f8fdb78829eb7cf
     Pseudo is Projector augmented-wave + core cor, Zval =  6.0
     Generated using 'atomic' code by A. Dal Corso  v.6.7MaX
     Shape of augmentation charge: PSQ
     Using radial grid of 1095 points,  4 beta functions with:
                l(1) =   0
                l(2) =   0
                l(3) =   1
                l(4) =   1
     Q(r) pseudized with 0 coefficients

     PseudoPot. # 3 for C  read from file:
     /users/bkreitz1/quantum-espresso/potentials/C.pbe-n-kjpaw_psl.1.0.0.UPF
     MD5 check sum: a169b0ebad56f5ec0d79c4633f80bf22
     Pseudo is Projector augmented-wave + core cor, Zval =  4.0
     Generated using 'atomic' code by A. Dal Corso  v.6.7MaX
     Shape of augmentation charge: PSQ
     Using radial grid of 1073 points,  4 beta functions with:
                l(1) =   0
                l(2) =   0
                l(3) =   1
                l(4) =   1
     Q(r) pseudized with 0 coefficients

     PseudoPot. # 4 for H  read from file:
     /users/bkreitz1/quantum-espresso/potentials/H.pbe-kjpaw_psl.1.0.0.UPF
     MD5 check sum: ae98473e6dc62675f0d0baffdab24f65
     Pseudo is Projector augmented-wave, Zval =  1.0
     Generated using 'atomic' code by A. Dal Corso  v.6.7MaX
     Shape of augmentation charge: PSQ
     Using radial grid of  929 points,  2 beta functions with:
                l(1) =   0
                l(2) =   0
     Q(r) pseudized with 0 coefficients

     atomic species   valence    mass     pseudopotential
        Pt            10.00   195.08400     Pt( 1.00)
        O              6.00    15.99900     O ( 1.00)
        C              4.00    12.01100     C ( 1.00)
        H              1.00     1.00800     H ( 1.00)

     No symmetry found

   Cartesian axes

     site n.     atom                  positions (alat units)
         1           Pt  tau(   1) = (   0.0000000   0.0000000   1.0017346  )
         2           Pt  tau(   2) = (   0.3333333   0.0000000   1.0017346  )
         3           Pt  tau(   3) = (   0.6666667   0.0000000   1.0017346  )
         4           Pt  tau(   4) = (   0.1666667   0.2886751   1.0017346  )
         5           Pt  tau(   5) = (   0.5000000   0.2886751   1.0017346  )
         6           Pt  tau(   6) = (   0.8333333   0.2886751   1.0017346  )
         7           Pt  tau(   7) = (   0.3333333   0.5773503   1.0017346  )
         8           Pt  tau(   8) = (   0.6666667   0.5773503   1.0017346  )
         9           Pt  tau(   9) = (   1.0000000   0.5773503   1.0017346  )
        10           Pt  tau(  10) = (   0.1666667   0.0962250   1.2739001  )
        11           Pt  tau(  11) = (   0.5000000   0.0962250   1.2739001  )
        12           Pt  tau(  12) = (   0.8333333   0.0962250   1.2739001  )
        13           Pt  tau(  13) = (   0.3333333   0.3849002   1.2739001  )
        14           Pt  tau(  14) = (   0.6666667   0.3849002   1.2739001  )
        15           Pt  tau(  15) = (   1.0000000   0.3849002   1.2739001  )
        16           Pt  tau(  16) = (   0.5000000   0.6735753   1.2739001  )
        17           Pt  tau(  17) = (   0.8333333   0.6735753   1.2739001  )
        18           Pt  tau(  18) = (   1.1666667   0.6735753   1.2739001  )
        19           Pt  tau(  19) = (  -0.0002235   0.1923083   1.5423163  )
        20           Pt  tau(  20) = (   0.3334801   0.1923880   1.5422128  )
        21           Pt  tau(  21) = (   0.6667629   0.1924031   1.5426769  )
        22           Pt  tau(  22) = (   0.1667174   0.4814249   1.5422012  )
        23           Pt  tau(  23) = (   0.4999579   0.4811608   1.5424991  )
        24           Pt  tau(  24) = (   0.8333272   0.4810856   1.5427268  )
        25           Pt  tau(  25) = (   0.3333135   0.7697858   1.5425908  )
        26           Pt  tau(  26) = (   0.6666033   0.7697774   1.5424123  )
        27           Pt  tau(  27) = (   1.0001398   0.7697415   1.5425868  )
        28           Pt  tau(  28) = (  -0.0001346  -0.0000284   1.8164882  )
        29           Pt  tau(  29) = (   0.3335246  -0.0004114   1.8155766  )
        30           Pt  tau(  30) = (   0.6666521   0.0000062   1.8168356  )
        31           Pt  tau(  31) = (   0.1660046   0.2890232   1.8145838  )
        32           Pt  tau(  32) = (   0.5003492   0.2886843   1.8159302  )
        33           Pt  tau(  33) = (   0.8334857   0.2886270   1.8174395  )
        34           Pt  tau(  34) = (   0.3333086   0.5773203   1.8166287  )
        35           Pt  tau(  35) = (   0.6667507   0.5773176   1.8165586  )
        36           Pt  tau(  36) = (   1.0000813   0.5772127   1.8171231  )
        37           O   tau(  37) = (   0.1667315   0.1008379   2.2206703  )
        38           C   tau(  38) = (   0.3024949   0.1866182   2.2316050  )
        39           O   tau(  39) = (   0.2889483   0.3466082   2.2205835  )
        40           H   tau(  40) = (   0.1816628   0.3825541   2.2051369  )
        41           H   tau(  41) = (   0.0755311   0.1628867   2.1908778  )
        42           O   tau(  42) = (   0.4284238   0.1241837   2.2511390  )

     number of k points=    13  Marzari-Vanderbilt smearing, width (Ry)=  0.0200
                       cart. coord. in units 2pi/alat
        k(    1) = (   0.0000000   0.0000000   0.0000000), wk =   0.0800000
        k(    2) = (   0.0000000   0.2309401   0.0000000), wk =   0.1600000
        k(    3) = (   0.0000000   0.4618802   0.0000000), wk =   0.1600000
        k(    4) = (   0.2000000  -0.1154701   0.0000000), wk =   0.1600000
        k(    5) = (   0.2000000   0.1154701   0.0000000), wk =   0.1600000
        k(    6) = (   0.2000000   0.3464102   0.0000000), wk =   0.1600000
        k(    7) = (   0.2000000  -0.5773503   0.0000000), wk =   0.1600000
        k(    8) = (   0.2000000  -0.3464102   0.0000000), wk =   0.1600000
        k(    9) = (   0.4000000  -0.2309401   0.0000000), wk =   0.1600000
        k(   10) = (   0.4000000  -0.0000000   0.0000000), wk =   0.1600000
        k(   11) = (   0.4000000   0.2309401   0.0000000), wk =   0.1600000
        k(   12) = (   0.4000000  -0.6928203   0.0000000), wk =   0.1600000
        k(   13) = (   0.4000000  -0.4618802   0.0000000), wk =   0.1600000

     Check: negative core charge=   -0.000002

     Initial potential from superposition of free atoms

     starting charge  383.99383, renormalised to  384.00000

     negative rho (up, down):  1.167E-02 0.000E+00

     %%%%%%%%%%%%%%%%%%%%%%%%%%%%%%%%%%%%%%%%%%%%%%%%%%%%%%%%%%%%%%%%%%%%%%%%
     %                                                                      %
     % You are using vdW-DF, which was implemented by the Thonhauser group. %
     % Please cite the following two papers that made this development      %
     % possible and the two reviews that describe the various versions:     %
     %                                                                      %
     %   T. Thonhauser et al., PRL 115, 136402 (2015).                      %
     %   T. Thonhauser et al., PRB 76, 125112 (2007).                       %
     %   K. Berland et al., Rep. Prog. Phys. 78, 066501 (2015).             %
     %   D.C. Langreth et al., J. Phys.: Condens. Matter 21, 084203 (2009). %
     %                                                                      %
     %                                                                      %
     % If you are calculating the stress with vdW-DF, please also cite:     %
     %                                                                      %
     %   R. Sabatini et al., J. Phys.: Condens. Matter 24, 424209 (2012).   %
     %                                                                      %
     %%%%%%%%%%%%%%%%%%%%%%%%%%%%%%%%%%%%%%%%%%%%%%%%%%%%%%%%%%%%%%%%%%%%%%%%

     Starting wfcs are  342 randomized atomic wfcs
     Checking if some PAW data can be deallocated...

     Self-consistent Calculation

     iteration #  1     ecut=    60.00 Ry     beta= 0.70
     Davidson diagonalization with overlap
     ethr =  1.00E-02,  avg # of iterations =  2.7

     Threshold (ethr) on eigenvalues was too large:
     Diagonalizing with lowered threshold

     Davidson diagonalization with overlap
     ethr =  6.33E-04,  avg # of iterations =  3.3

[...]

     total energy              =  -27902.85381409 Ry
     estimated scf accuracy    <       2.59215956 Ry

[...]

     iteration #  8     ecut=    60.00 Ry     beta= 0.70
     Davidson diagonalization with overlap
     c_bands:  4 eigenvalues not converged
     c_bands:  2 eigenvalues not converged
     c_bands:  3 eigenvalues not converged
     ethr =  4.21E-06,  avg # of iterations = 12.1

[...]

     iteration # 17     ecut=    60.00 Ry     beta= 0.70
     Davidson diagonalization with overlap
     c_bands:  1 eigenvalues not converged
     ethr =  2.60E-08,  avg # of iterations =  3.8

[...]

     total energy              =  -27903.19709661 Ry
     estimated scf accuracy    <       0.00000279 Ry

     iteration # 21     ecut=    60.00 Ry     beta= 0.70
     Davidson diagonalization with overlap
     ethr =  7.26E-10,  avg # of iterations =  2.0

[...]

     End of self-consistent calculation

          k = 0.0000 0.0000 0.0000 ( 89081 PWs)   bands (ev):

   -21.7468 -19.4689 -18.8136  -9.1968  -8.3522  -7.1376  -5.8265  -4.7755
    -4.7242  -4.7174  -4.7173  -4.7147  -4.7133  -4.7125  -4.7104  -4.6745
    -4.5613  -4.1577  -4.1573  -4.1570  -4.1556  -4.1548  -4.1538  -3.6854
    -3.6836  -3.6814  -3.6805  -3.6800  -3.6783  -3.5569  -3.4670  -3.4661
    -3.4652  -3.4639  -3.4625  -3.4621  -3.2405  -3.2396  -3.2352  -3.2333
    -3.2197  -3.2184  -3.2179  -3.2161  -3.2141  -3.2135  -3.2040  -3.2025
    -2.6212  -2.6203  -2.5910  -2.5890  -2.5351  -2.5333  -2.5317  -2.5310
    -2.5284  -2.5282  -2.3950  -2.3938  -2.2944  -2.2906  -2.0700  -1.7955
    -1.7853  -1.7841  -1.7809  -1.7801  -1.7787  -1.7171  -1.6302  -1.6302
    -1.6020  -1.5972  -1.5869  -1.5859  -1.5836  -1.5720  -1.5672  -1.5647
    -1.5643  -1.5619  -1.5599  -1.5287  -1.5284  -1.5009  -1.3739  -1.3690
    -1.3665  -1.3656  -1.3643  -1.3560  -1.2229  -1.2197  -1.2181  -1.2154
    -1.2144  -1.2121  -1.1164  -1.1163  -1.0181  -1.0180  -0.9534  -0.9533
    -0.9523  -0.9350  -0.9076  -0.9052  -0.8984  -0.8956  -0.7879  -0.7458
    -0.7413  -0.7375  -0.7355  -0.7304  -0.7255  -0.5882  -0.2529  -0.2513
    -0.2483  -0.2465  -0.2456  -0.2442  -0.1792  -0.1737  -0.1694  -0.1681
    -0.1662  -0.1625  -0.1008  -0.0989   0.0560   0.0641   0.0705   0.0763
     0.0801   0.0855   0.1106   0.2155   0.2176   0.2182   0.2185   0.2273
     0.2274   0.4810   0.4812   0.4821   0.4839   0.4854   0.4864   0.5632
     0.5634   0.7414   0.7451   0.7471   0.7495   0.7503   0.7515   0.9130
     0.9154   0.9177   0.9184   0.9193   0.9197   0.9553   0.9615   0.9653
     0.9693   0.9733   0.9760   1.0933   1.0943   1.1125   1.1134   1.1141
     1.1153   1.1164   1.1168   1.2143   1.2207   1.2214   1.2219   1.2225
     1.2259   1.2281   1.2290   1.3193   1.3225   1.3241   1.3268   1.3279
     1.3281   1.4272   1.4285   1.4342   1.4350   1.4372   1.4375   1.5190
     1.6535   1.6537   1.7594   1.7613   1.7619   1.7631   1.7646   1.7650
     2.5789   2.6437   2.6503   2.6573   2.6686   2.6812   2.6861   4.9277
     4.9660   4.9883   5.0053   5.0180   5.0272   5.7782   6.5159   6.5177
     6.5470   6.5719   6.5749   6.5754   6.6726   6.7760

[...]

          k = 0.4000-0.4619 0.0000 ( 89064 PWs)   bands (ev):

   -21.7468 -19.4690 -18.8136  -9.1964  -8.3521  -6.1722  -6.1669  -5.5619
    -4.9209  -4.9062  -4.7025  -4.5768  -4.3978  -4.3871  -4.2628  -4.2295
    -4.1202  -4.1188  -4.0123  -4.0109  -3.8870  -3.8839  -3.8824  -3.8485
    -3.8459  -3.8159  -3.8047  -3.6888  -3.6787  -3.6764  -3.6353  -3.6334
    -3.5550  -3.5305  -3.4377  -3.4214  -3.3547  -3.2624  -3.2613  -3.2442
    -3.2411  -3.2278  -3.1138  -3.1119  -3.0221  -3.0169  -2.8455  -2.8376
    -2.7766  -2.6773  -2.6752  -2.6251  -2.6248  -2.5167  -2.4674  -2.4186
    -2.4163  -2.3966  -2.3536  -2.3512  -2.3218  -2.2171  -2.2149  -2.1869
    -2.1859  -2.1766  -2.1755  -2.1742  -2.1051  -2.0985  -2.0702  -1.9709
    -1.9466  -1.9009  -1.8963  -1.7795  -1.7456  -1.7394  -1.7385  -1.6964
    -1.6510  -1.6496  -1.5908  -1.5415  -1.5377  -1.5328  -1.5298  -1.4860
    -1.4218  -1.4210  -1.4090  -1.3765  -1.3193  -1.3121  -1.2990  -1.2934
    -1.1867  -1.1419  -1.1374  -1.0919  -1.0911  -1.0523  -1.0500  -1.0346
    -1.0282  -1.0025  -1.0007  -0.9535  -0.9491  -0.9178  -0.9051  -0.9015
    -0.8989  -0.8986  -0.8787  -0.8492  -0.7936  -0.7807  -0.7773  -0.6464
    -0.5627  -0.5555  -0.4714  -0.4682  -0.3642  -0.3513  -0.3473  -0.3214
    -0.2632  -0.2588  -0.2567  -0.2368  -0.2288  -0.1494  -0.1171  -0.1134
    -0.0478  -0.0231  -0.0168   0.0376   0.0415   0.0632   0.1087   0.2320
     0.2936   0.2992   0.3157   0.3179   0.4079   0.4152   0.4201   0.4380
     0.4535   0.4590   0.4951   0.4966   0.6125   0.6174   0.6265   0.6814
     0.6829   0.7046   0.7124   0.7269   0.7329   0.8903   0.9392   0.9675
     1.0470   1.0518   1.1305   1.1325   1.2173   1.2591   1.2641   1.2689
     1.3710   1.3763   1.4453   1.4771   1.4847   1.4939   1.4993   1.5411
     1.5446   1.5766   1.6526   1.6549   1.6784   1.7050   1.7076   1.7101
     1.7218   1.7710   1.9123   1.9177   1.9186   1.9197   1.9215   1.9952
     2.0653   2.1090   2.2500   3.0680   3.0687   3.2859   3.3380   3.3533
     3.4711   3.4754   3.4817   3.9258   4.0798   4.0813   4.5367   4.5668
     4.5771   4.6848   4.6891   4.8981   4.9605   5.0073   5.1568   5.4265
     5.5227   5.5267   5.9166   6.1593   6.1642   6.3120

     the Fermi energy is     1.6853 ev

!    total energy              =  -27903.19709603 Ry

     total all-electron energy =  -1327174.267291 Ry
     estimated scf accuracy    <       0.00000095 Ry
     smearing contrib. (-TS)   =       0.00235105 Ry
     internal energy E=F+TS    =  -27903.19944708 Ry

     The total energy is F=E-TS. E is the sum of the following terms:
     one-electron contribution =  -26501.30169700 Ry
     hartree contribution      =   13557.75152710 Ry
     xc contribution           =    -919.49580123 Ry
     ewald contribution        =   11470.75762336 Ry
     one-center paw contrib.   =  -25510.91109931 Ry

     convergence has been achieved in  21 iterations

[...]

     Forces acting on atoms (cartesian axes, Ry/au):

     atom    1 type  1   force =    -0.00001748    0.00000608   -0.00344997
     atom    2 type  1   force =    -0.00015330    0.00002876   -0.00331096
     atom    3 type  1   force =     0.00019893   -0.00004123   -0.00318372
     atom    4 type  1   force =     0.00002379   -0.00000334   -0.00333499
     atom    5 type  1   force =    -0.00005321    0.00015405   -0.00329853
     atom    6 type  1   force =     0.00004909   -0.00001270   -0.00332721
     atom    7 type  1   force =     0.00002324    0.00000316   -0.00346743
     atom    8 type  1   force =    -0.00004625   -0.00000914   -0.00337374
     atom    9 type  1   force =     0.00005385   -0.00007938   -0.00332378
     atom   10 type  1   force =     0.00014968   -0.00011221    0.00273162
     atom   11 type  1   force =     0.00023316   -0.00011624    0.00220550
     atom   12 type  1   force =    -0.00028327    0.00003742    0.00330534
     atom   13 type  1   force =     0.00020439   -0.00005506    0.00277535
     atom   14 type  1   force =     0.00010729   -0.00003125    0.00318195
     atom   15 type  1   force =    -0.00030187    0.00017957    0.00312673
     atom   16 type  1   force =     0.00009193   -0.00008550    0.00351112
     atom   17 type  1   force =     0.00014322   -0.00010322    0.00292307
     atom   18 type  1   force =    -0.00015952    0.00030237    0.00288233
     atom   19 type  1   force =    -0.00029032    0.00010999    0.00005131
     atom   20 type  1   force =    -0.00003447    0.00007186    0.00003525
     atom   21 type  1   force =     0.00029885    0.00006298    0.00028881
     atom   22 type  1   force =    -0.00021460    0.00016864    0.00018200
     atom   23 type  1   force =     0.00016689    0.00013656    0.00031584
     atom   24 type  1   force =     0.00013513   -0.00009582    0.00057446
     atom   25 type  1   force =    -0.00004784    0.00000912    0.00056695
     atom   26 type  1   force =    -0.00007840   -0.00022516    0.00019493
     atom   27 type  1   force =     0.00011504   -0.00025153    0.00018698
     atom   28 type  1   force =     0.00002564   -0.00018593   -0.00012961
     atom   29 type  1   force =    -0.00016231    0.00013677   -0.00006107
     atom   30 type  1   force =     0.00012052   -0.00012057    0.00012896
     atom   31 type  1   force =     0.00058580   -0.00031138    0.00034843
     atom   32 type  1   force =    -0.00015993    0.00009469   -0.00000746
     atom   33 type  1   force =    -0.00031553   -0.00001538   -0.00008655
     atom   34 type  1   force =     0.00009970    0.00010949   -0.00018074
     atom   35 type  1   force =    -0.00006564   -0.00009303    0.00006531
     atom   36 type  1   force =    -0.00008525    0.00024091   -0.00011056
     atom   37 type  2   force =     0.00054402    0.00038726   -0.00059438
     atom   38 type  3   force =     0.00314260   -0.00195924    0.00427254
     atom   39 type  2   force =    -0.00003829   -0.00027642   -0.00061382
     atom   40 type  4   force =    -0.00008078    0.00003457    0.00014039
     atom   41 type  4   force =     0.00035345   -0.00003050    0.00046762
     atom   42 type  2   force =    -0.00427796    0.00194000   -0.00260826

     Total force =     0.008055     Total SCF correction =     0.002394
     SCF correction compared to forces is large: reduce conv_thr to get better values

[...]

     negative rho (up, down):  1.282E-02 0.000E+00

     negative rho (up, down):  1.282E-02 0.000E+00
 BEEFens 2000 ensemble energies
             -0.615806808783883E+02
             -0.365493009592615E+01
             -0.160476815936259E+02
              0.436039350261793E+02
             -0.224398452841509E+02
             -0.208090441416986E+02
             -0.359022792708932E+02
             -0.879019633795100E+02
             -0.471612269489334E+02
             -0.479482666705729E+02
             -0.374458883201833E+02
              0.234082003225893E+01
              0.409118146129418E+01
              0.763653451187830E+01
              0.271973654516083E+01
              0.481837318798832E+02
             -0.212311520760712E+02
             -0.232867014758459E+02
              0.195331879690088E+02
             -0.114071191487504E+03
              0.544827756991419E+02
             -0.293004539668390E+02
             -0.343487724195214E+01
             -0.115899451942314E+02
             -0.886497521309639E+01
             -0.477049387706430E+01
              0.896127571950631E+02
             -0.189554784103915E+02
             -0.917923227819153E+01
             -0.526239151073053E+02
              0.826912318039708E+02
             -0.189179257409275E+02
             -0.380961986023758E+02
              0.252834079974796E+02
             -0.289504521152753E+01
              0.167003114948204E+02
             -0.488232540825129E+01
              0.109016826906172E+02
              0.292235012619349E+02
             -0.104847785132673E+03
              0.566682354082223E+02
              0.144167579297398E+02
             -0.181458845411237E+01
             -0.366669977718533E+02
              0.124757226451593E+02
             -0.149284378600353E+02
              0.405230597655294E+02
              0.370374586800791E+02
             -0.311865655253671E+02
             -0.279389515852989E+02
             -0.332272616865196E+02
             -0.357334093712366E+02
              0.138220842348901E+02
             -0.498850010330584E+02
              0.117854978414140E+02
              0.632257313916132E+02
              0.645672283241195E+02
              0.361051493085889E+02
              0.157134142509935E+02
              0.274820077345887E+02
[...]
             -0.716912817870488E+02
             -0.877599985657298E+00
             -0.242793216316292E+01
             -0.897752206941743E+01
             -0.176813122539409E+01
             -0.662719080811328E+02
             -0.213197991710657E+02
              0.553092596715234E+01
              0.912130650240766E+01
              0.475949078211797E+02
             -0.403458698921936E+02
              0.666545813438134E+02
             -0.431180528385257E+02
              0.213826598513833E+02
              0.356310668482041E+02

 BEEF-vdW xc energy contributions
           1 :   -793.851395070367
           2 :    728.661534559088
           3 :   -616.235673543335
           4 :    484.438855621327
           5 :   -361.026951066086
           6 :    265.699085774592
           7 :   -205.941327620692
           8 :    177.180691569097
           9 :   -166.785897213463
          10 :    160.139757873086
          11 :   -146.383423414489
          12 :    121.656708339680
          13 :   -88.9519863003476
          14 :    55.2140175071689
          15 :   -27.3954581991107
          16 :    9.24248074115155
          17 :  -1.050051483991865E-002
          18 :   -4.63036764332276
          19 :    10.1580442359597
          20 :   -20.5042569521765
          21 :    36.3436112242731
          22 :   -55.0573479620278
          23 :    72.2282637472534
          24 :   -83.8531352110743
          25 :    88.1760326711138
          26 :   -86.3247370317908
          27 :    81.5594080443826
          28 :   -77.5949245874933
          29 :    76.8357405164375
          30 :   -79.3563891846350
          31 :   -87.0163110176845
          32 :   -66.5352764322099

     Writing output data file ./pwscf.save/

     General routines

     Parallel routines

   This run was terminated on:   2:23:15  27Sep2022

   JOB DONE.