     Program PWSCF v.6.7MaX starts on 26Sep2022 at 21: 9:42

     Reading input from oh-ensemble.in
Warning: card &CELL ignored
Warning: card / ignored

     Current dimensions of program PWSCF are:
     Max number of different atomic species (ntypx) = 10
     Max number of k-points (npk) =  40000
     Max angular momentum in pseudopotentials (lmaxx) =  3
     file Pt.pbe-n-kjpaw_psl.1.0.0.UPF: wavefunction(s)  6S 5D renormalized
     file O.pbe-nl-kjpaw_psl.1.0.0.UPF: wavefunction(s)  2S 2P renormalized
     file H.pbe-kjpaw_psl.1.0.0.UPF: wavefunction(s)  1S renormalized

     IMPORTANT: XC functional enforced from input :
     Exchange-correlation= BEEF-VDW
                           (   1   4  43  14   2   0   0)
     Any further DFT definition will be discarded
     Please, verify this is what you really want

     Subspace diagonalization in iterative solution of the eigenvalue problem:
     a serial algorithm will be used

     bravais-lattice index     =            0
     lattice parameter (alat)  =      16.0349  a.u.
     unit-cell volume          =   11061.4409 (a.u.)^3
     number of atoms/cell      =           38
     number of atomic types    =            3
     number of electrons       =       367.00
     number of Kohn-Sham states=          221
     kinetic-energy cutoff     =      60.0000  Ry
     charge density cutoff     =     240.0000  Ry
     scf convergence threshold =      1.0E-06
     mixing beta               =       0.7000
     number of iterations used =            8  local-TF  mixing
     Exchange-correlation= BEEF-VDW
                           (   1   4  43  14   2   0   0)

     celldm(1)=  16.034858  celldm(2)=   0.000000  celldm(3)=   0.000000
     celldm(4)=   0.000000  celldm(5)=   0.000000  celldm(6)=   0.000000

     crystal axes: (cart. coord. in units of alat)
               a(1) = (   1.000000   0.000000   0.000000 )
               a(2) = (   0.500000   0.866025   0.000000 )
               a(3) = (   0.000000   0.000000   3.098031 )

     reciprocal axes: (cart. coord. in units 2 pi/alat)
               b(1) = (  1.000000 -0.577350  0.000000 )
               b(2) = (  0.000000  1.154701  0.000000 )
               b(3) = (  0.000000  0.000000  0.322786 )

     PseudoPot. # 1 for Pt read from file:
     /users/bkreitz1/quantum-espresso/potentials/Pt.pbe-n-kjpaw_psl.1.0.0.UPF
     MD5 check sum: 04dc8a03c51ece93fc7b5889c2958091
     Pseudo is Projector augmented-wave + core cor, Zval = 10.0
     Generated using 'atomic' code by A. Dal Corso  v.6.7MaX
     Shape of augmentation charge: PSQ
     Using radial grid of 1277 points,  6 beta functions with:
                l(1) =   0
                l(2) =   0
                l(3) =   1
                l(4) =   1
                l(5) =   2
                l(6) =   2
     Q(r) pseudized with 0 coefficients

     PseudoPot. # 2 for O  read from file:
     /users/bkreitz1/quantum-espresso/potentials/O.pbe-nl-kjpaw_psl.1.0.0.UPF
     MD5 check sum: eef08af8b58d9ec80f8fdb78829eb7cf
     Pseudo is Projector augmented-wave + core cor, Zval =  6.0
     Generated using 'atomic' code by A. Dal Corso  v.6.7MaX
     Shape of augmentation charge: PSQ
     Using radial grid of 1095 points,  4 beta functions with:
                l(1) =   0
                l(2) =   0
                l(3) =   1
                l(4) =   1
     Q(r) pseudized with 0 coefficients

     PseudoPot. # 3 for H  read from file:
     /users/bkreitz1/quantum-espresso/potentials/H.pbe-kjpaw_psl.1.0.0.UPF
     MD5 check sum: ae98473e6dc62675f0d0baffdab24f65
     Pseudo is Projector augmented-wave, Zval =  1.0
     Generated using 'atomic' code by A. Dal Corso  v.6.7MaX
     Shape of augmentation charge: PSQ
     Using radial grid of  929 points,  2 beta functions with:
                l(1) =   0
                l(2) =   0
     Q(r) pseudized with 0 coefficients

     atomic species   valence    mass     pseudopotential
        Pt            10.00   195.08400     Pt( 1.00)
        O              6.00    15.99900     O ( 1.00)
        H              1.00     1.00800     H ( 1.00)

     No symmetry found

   Cartesian axes

     site n.     atom                  positions (alat units)
         1           Pt  tau(   1) = (   0.0000000   0.0000000   1.0017346  )
         2           Pt  tau(   2) = (   0.3333333   0.0000000   1.0017346  )
         3           Pt  tau(   3) = (   0.6666667   0.0000000   1.0017346  )
         4           Pt  tau(   4) = (   0.1666667   0.2886751   1.0017346  )
         5           Pt  tau(   5) = (   0.5000000   0.2886751   1.0017346  )
         6           Pt  tau(   6) = (   0.8333333   0.2886751   1.0017346  )
         7           Pt  tau(   7) = (   0.3333333   0.5773503   1.0017346  )
         8           Pt  tau(   8) = (   0.6666667   0.5773503   1.0017346  )
         9           Pt  tau(   9) = (   1.0000000   0.5773503   1.0017346  )
        10           Pt  tau(  10) = (   0.1666667   0.0962250   1.2739001  )
        11           Pt  tau(  11) = (   0.5000000   0.0962250   1.2739001  )
        12           Pt  tau(  12) = (   0.8333333   0.0962250   1.2739001  )
        13           Pt  tau(  13) = (   0.3333333   0.3849002   1.2739001  )
        14           Pt  tau(  14) = (   0.6666667   0.3849002   1.2739001  )
        15           Pt  tau(  15) = (   1.0000000   0.3849002   1.2739001  )
        16           Pt  tau(  16) = (   0.5000000   0.6735753   1.2739001  )
        17           Pt  tau(  17) = (   0.8333333   0.6735753   1.2739001  )
        18           Pt  tau(  18) = (   1.1666667   0.6735753   1.2739001  )
        19           Pt  tau(  19) = (   0.0006358   0.1921194   1.5420269  )
        20           Pt  tau(  20) = (   0.3326895   0.1920743   1.5420326  )
        21           Pt  tau(  21) = (   0.6666515   0.1917580   1.5412529  )
        22           Pt  tau(  22) = (   0.1667531   0.4798022   1.5464634  )
        23           Pt  tau(  23) = (   0.4993969   0.4814510   1.5412508  )
        24           Pt  tau(  24) = (   0.8339848   0.4814986   1.5412588  )
        25           Pt  tau(  25) = (   0.3348410   0.7706643   1.5469527  )
        26           Pt  tau(  26) = (   0.6667023   0.7705160   1.5420262  )
        27           Pt  tau(  27) = (   0.9989203   0.7705176   1.5464395  )
        28           Pt  tau(  28) = (  -0.0129954  -0.0074977   1.8153344  )
        29           Pt  tau(  29) = (   0.3462797  -0.0076499   1.8148612  )
        30           Pt  tau(  30) = (   0.6665298   0.0004555   1.8205801  )
        31           Pt  tau(  31) = (   0.1665089   0.3036974   1.8148889  )
        32           Pt  tau(  32) = (   0.5017984   0.2897122   1.8136216  )
        33           Pt  tau(  33) = (   0.8311644   0.2898452   1.8135378  )
        34           Pt  tau(  34) = (   0.3336642   0.5770020   1.8205772  )
        35           Pt  tau(  35) = (   0.6665940   0.5748962   1.8135402  )
        36           Pt  tau(  36) = (   0.9995529   0.5770939   1.8206457  )
        37           O   tau(  37) = (   0.1647200   0.0952057   1.9802935  )
        38           H   tau(  38) = (   0.1606885   0.0931055   2.0956978  )

     number of k points=    13  Marzari-Vanderbilt smearing, width (Ry)=  0.0200
                       cart. coord. in units 2pi/alat
        k(    1) = (   0.0000000   0.0000000   0.0000000), wk =   0.0800000
        k(    2) = (   0.0000000   0.2309401   0.0000000), wk =   0.1600000
        k(    3) = (   0.0000000   0.4618802   0.0000000), wk =   0.1600000
        k(    4) = (   0.2000000  -0.1154701   0.0000000), wk =   0.1600000
        k(    5) = (   0.2000000   0.1154701   0.0000000), wk =   0.1600000
        k(    6) = (   0.2000000   0.3464102   0.0000000), wk =   0.1600000
        k(    7) = (   0.2000000  -0.5773503   0.0000000), wk =   0.1600000
        k(    8) = (   0.2000000  -0.3464102   0.0000000), wk =   0.1600000
        k(    9) = (   0.4000000  -0.2309401   0.0000000), wk =   0.1600000
        k(   10) = (   0.4000000  -0.0000000   0.0000000), wk =   0.1600000
        k(   11) = (   0.4000000   0.2309401   0.0000000), wk =   0.1600000
        k(   12) = (   0.4000000  -0.6928203   0.0000000), wk =   0.1600000
        k(   13) = (   0.4000000  -0.4618802   0.0000000), wk =   0.1600000

     Initial potential from superposition of free atoms

     starting charge  366.99388, renormalised to  367.00000

     negative rho (up, down):  1.244E-02 0.000E+00

     %%%%%%%%%%%%%%%%%%%%%%%%%%%%%%%%%%%%%%%%%%%%%%%%%%%%%%%%%%%%%%%%%%%%%%%%
     %                                                                      %
     % You are using vdW-DF, which was implemented by the Thonhauser group. %
     % Please cite the following two papers that made this development      %
     % possible and the two reviews that describe the various versions:     %
     %                                                                      %
     %   T. Thonhauser et al., PRL 115, 136402 (2015).                      %
     %   T. Thonhauser et al., PRB 76, 125112 (2007).                       %
     %   K. Berland et al., Rep. Prog. Phys. 78, 066501 (2015).             %
     %   D.C. Langreth et al., J. Phys.: Condens. Matter 21, 084203 (2009). %
     %                                                                      %
     %                                                                      %
     % If you are calculating the stress with vdW-DF, please also cite:     %
     %                                                                      %
     %   R. Sabatini et al., J. Phys.: Condens. Matter 24, 424209 (2012).   %
     %                                                                      %
     %%%%%%%%%%%%%%%%%%%%%%%%%%%%%%%%%%%%%%%%%%%%%%%%%%%%%%%%%%%%%%%%%%%%%%%%

     Starting wfcs are  329 randomized atomic wfcs
     Checking if some PAW data can be deallocated...

     Self-consistent Calculation

     iteration #  1     ecut=    60.00 Ry     beta= 0.70
     Davidson diagonalization with overlap
     ethr =  1.00E-02,  avg # of iterations =  2.2

     Threshold (ethr) on eigenvalues was too large:
     Diagonalizing with lowered threshold

     Davidson diagonalization with overlap
     ethr =  5.25E-04,  avg # of iterations =  3.8

[...]

     total energy              =  -27797.61000281 Ry
     estimated scf accuracy    <       2.10188953 Ry

[...]

     iteration #  4     ecut=    60.00 Ry     beta= 0.70
     Davidson diagonalization with overlap
     c_bands:  1 eigenvalues not converged
     c_bands:  1 eigenvalues not converged
     c_bands:  1 eigenvalues not converged
     ethr =  4.00E-05,  avg # of iterations = 14.7

[...]

     iteration # 10     ecut=    60.00 Ry     beta= 0.70
     Davidson diagonalization with overlap
     c_bands:  2 eigenvalues not converged
     c_bands:  2 eigenvalues not converged
     c_bands:  2 eigenvalues not converged
     ethr =  3.66E-07,  avg # of iterations =  8.7

[...]

     total energy              =  -27797.93331840 Ry
     estimated scf accuracy    <       0.00000100 Ry

     iteration # 19     ecut=    60.00 Ry     beta= 0.70
     Davidson diagonalization with overlap
     ethr =  2.73E-10,  avg # of iterations =  5.2

[...]

     End of self-consistent calculation

          k = 0.0000 0.0000 0.0000 ( 86811 PWs)   bands (ev):

   -18.2291  -6.8852  -6.4863  -5.4189  -4.4289  -4.4259  -4.4089  -4.3757
    -4.3755  -4.3752  -4.3606  -4.2875  -3.9477  -3.9434  -3.8434  -3.8430
    -3.8127  -3.7633  -3.5798  -3.5779  -3.3802  -3.3797  -3.3396  -3.2982
    -3.2010  -3.2005  -3.1576  -3.1570  -3.1224  -3.0693  -3.0226  -3.0165
    -2.9383  -2.9372  -2.9193  -2.9034  -2.9033  -2.8916  -2.8581  -2.8572
    -2.8564  -2.7725  -2.5564  -2.5299  -2.3795  -2.3005  -2.2999  -2.2669
    -2.2451  -2.2449  -2.2019  -2.1984  -2.1901  -2.1259  -2.0431  -2.0420
    -1.9576  -1.9556  -1.5359  -1.5356  -1.5082  -1.4715  -1.4703  -1.4124
    -1.3871  -1.3330  -1.3318  -1.2908  -1.2907  -1.2726  -1.2596  -1.2466
    -1.2441  -1.2428  -1.2188  -1.1917  -1.1840  -1.1831  -1.1829  -1.1810
    -1.0709  -1.0705  -1.0687  -1.0406  -1.0398  -1.0253  -0.9007  -0.8753
    -0.8741  -0.8733  -0.8591  -0.8581  -0.7970  -0.7967  -0.7138  -0.7060
    -0.7055  -0.6120  -0.6116  -0.5745  -0.5605  -0.5603  -0.5288  -0.5275
    -0.4527  -0.4522  -0.4321  -0.4057  -0.3982  -0.3953  -0.2855   0.0104
     0.0104   0.0191   0.0610   0.0630   0.0783   0.1035   0.1042   0.1953
     0.2137   0.2195   0.2348   0.2355   0.2763   0.3428   0.3438   0.4076
     0.4349   0.4782   0.4902   0.5551   0.5552   0.5705   0.5775   0.5781
     0.7511   0.8166   0.8237   0.8239   0.8682   0.8698   0.8853   0.8861
     0.9664   0.9919   1.0009   1.0048   1.0865   1.0872   1.0930   1.1177
     1.2042   1.2071   1.2506   1.2511   1.2731   1.2855   1.2861   1.2972
     1.3146   1.3147   1.3228   1.4175   1.4184   1.4187   1.4259   1.4274
     1.4856   1.5032   1.5040   1.5182   1.5198   1.5563   1.5655   1.5689
     1.5705   1.6403   1.6405   1.6409   1.6556   1.6671   1.6683   1.7183
     1.7191   1.7602   1.7607   1.7779   1.7849   1.8209   1.8242   1.9999
     2.0017   2.0627   2.1035   2.1041   2.1047   2.1481   2.1502   2.2123
     2.9195   2.9748   2.9755   2.9788   3.1974   3.2036   3.7364   5.3107
     5.3130   5.3148   5.4380   5.4453   5.5705   6.4062   6.8146   6.8858
     6.8871   6.8957   6.9331   6.9332   6.9571

[...]

          k = 0.4000-0.4619 0.0000 ( 86820 PWs)   bands (ev):

   -18.2290  -6.5728  -5.8399  -5.7848  -5.2264  -4.6441  -4.5232  -4.1200
    -4.0536  -3.9642  -3.9078  -3.8024  -3.7787  -3.7297  -3.6879  -3.6560
    -3.5834  -3.5522  -3.5211  -3.5115  -3.5023  -3.4515  -3.4300  -3.3524
    -3.3246  -3.3156  -3.3040  -3.2994  -3.1605  -3.1326  -3.0609  -3.0057
    -2.9948  -2.9668  -2.9282  -2.8627  -2.8495  -2.8165  -2.7280  -2.6881
    -2.6816  -2.6430  -2.5075  -2.4818  -2.4326  -2.3699  -2.3328  -2.2863
    -2.2688  -2.1875  -2.1596  -2.1166  -2.0919  -2.0735  -2.0410  -1.9940
    -1.9813  -1.9152  -1.8993  -1.8845  -1.8636  -1.8566  -1.8333  -1.8023
    -1.7786  -1.7482  -1.6577  -1.6254  -1.5754  -1.5711  -1.5039  -1.4357
    -1.4124  -1.4054  -1.3924  -1.3688  -1.3235  -1.2995  -1.2534  -1.2280
    -1.1793  -1.1436  -1.1365  -1.1230  -1.0462  -1.0117  -0.9875  -0.9828
    -0.9628  -0.8882  -0.8842  -0.8462  -0.8064  -0.7810  -0.7598  -0.7447
    -0.7161  -0.7076  -0.6922  -0.6753  -0.6412  -0.6163  -0.5995  -0.5882
    -0.5753  -0.5579  -0.5454  -0.5316  -0.4985  -0.4756  -0.4663  -0.3263
    -0.2761  -0.2518  -0.2373  -0.1438  -0.1272  -0.0648  -0.0394  -0.0069
     0.0168   0.0526   0.0689   0.0772   0.1045   0.1320   0.1634   0.1965
     0.2478   0.2713   0.3196   0.3365   0.3527   0.3923   0.4403   0.5365
     0.5889   0.5933   0.6517   0.6767   0.7046   0.7159   0.7550   0.7707
     0.7926   0.7978   0.8516   0.9024   0.9203   0.9366   0.9847   0.9997
     1.0205   1.0552   1.0946   1.1152   1.2057   1.2270   1.3001   1.3440
     1.3895   1.4631   1.4709   1.5097   1.5538   1.5892   1.5926   1.6646
     1.7306   1.7564   1.7650   1.8092   1.8254   1.8317   1.8605   1.8886
     1.9167   1.9610   1.9799   1.9872   2.0197   2.0443   2.0474   2.0993
     2.1302   2.2159   2.2321   2.2430   2.2712   2.2872   2.3136   2.3380
     2.4372   2.5453   2.6611   3.3961   3.4046   3.6416   3.6557   3.7325
     3.8039   3.8706   3.9534   4.3218   4.4112   4.4506   4.8642   4.9020
     4.9902   5.0624   5.1307   5.2594   5.3441   5.4189   5.4561   5.7807
     5.8973   5.9960   6.3223   6.4928   6.5198

     the Fermi energy is     2.0297 ev

!    total energy              =  -27797.93331878 Ry

     total all-electron energy =  -1326793.545630 Ry
     estimated scf accuracy    <       0.00000043 Ry
     smearing contrib. (-TS)   =       0.00185819 Ry
     internal energy E=F+TS    =  -27797.93517697 Ry

     The total energy is F=E-TS. E is the sum of the following terms:
     one-electron contribution =  -25811.16239251 Ry
     hartree contribution      =   13209.08804085 Ry
     xc contribution           =    -898.58222086 Ry
     ewald contribution        =   11186.85176658 Ry
     one-center paw contrib.   =  -25484.13037104 Ry

     convergence has been achieved in  19 iterations

[...]

     Forces acting on atoms (cartesian axes, Ry/au):

     atom    1 type  1   force =    -0.00098549   -0.00055493   -0.00289198
     atom    2 type  1   force =     0.00095201   -0.00054074   -0.00292236
     atom    3 type  1   force =     0.00002844    0.00045284   -0.00510147
     atom    4 type  1   force =    -0.00000083    0.00109669   -0.00291322
     atom    5 type  1   force =     0.00087182    0.00049597   -0.00410153
     atom    6 type  1   force =    -0.00086450    0.00052874   -0.00422195
     atom    7 type  1   force =     0.00038370   -0.00019494   -0.00509263
     atom    8 type  1   force =     0.00002910   -0.00101504   -0.00422121
     atom    9 type  1   force =    -0.00062570   -0.00036600   -0.00537976
     atom   10 type  1   force =     0.00003969    0.00003834    0.00144007
     atom   11 type  1   force =     0.00072917   -0.00193024    0.00162702
     atom   12 type  1   force =    -0.00077144   -0.00222246    0.00188216
     atom   13 type  1   force =    -0.00132504    0.00159629    0.00165668
     atom   14 type  1   force =    -0.00000735   -0.00001456   -0.00072910
     atom   15 type  1   force =     0.00145742    0.00167590    0.00154927
     atom   16 type  1   force =    -0.00231571    0.00044203    0.00189006
     atom   17 type  1   force =     0.00217790    0.00040499    0.00152467
     atom   18 type  1   force =     0.00017700    0.00008428    0.02469020
     atom   19 type  1   force =    -0.00000918    0.00000869    0.00019323
     atom   20 type  1   force =     0.00000802    0.00002598    0.00026289
     atom   21 type  1   force =    -0.00001342   -0.00000553   -0.00000646
     atom   22 type  1   force =    -0.00000791    0.00006281    0.00002632
     atom   23 type  1   force =    -0.00002373   -0.00000909    0.00000126
     atom   24 type  1   force =     0.00001329   -0.00000648   -0.00001339
     atom   25 type  1   force =    -0.00014158   -0.00008871   -0.00006937
     atom   26 type  1   force =    -0.00001436   -0.00001039    0.00020420
     atom   27 type  1   force =     0.00005696   -0.00005362    0.00001622
     atom   28 type  1   force =     0.00021459    0.00012206   -0.00009319
     atom   29 type  1   force =    -0.00012906    0.00006514   -0.00006961
     atom   30 type  1   force =    -0.00005276    0.00002071    0.00037156
     atom   31 type  1   force =    -0.00000349   -0.00012872   -0.00008188
     atom   32 type  1   force =    -0.00012473   -0.00006472    0.00010291
     atom   33 type  1   force =     0.00013217   -0.00005599    0.00012082
     atom   34 type  1   force =    -0.00001994   -0.00006755    0.00035899
     atom   35 type  1   force =     0.00001772    0.00014088    0.00012582
     atom   36 type  1   force =    -0.00005213   -0.00004220    0.00034362
     atom   37 type  2   force =    -0.00059296   -0.00030822    0.01729170
     atom   38 type  3   force =     0.00079231    0.00041780   -0.01777054

     Total force =     0.024837     Total SCF correction =     0.001791

[...]

     negative rho (up, down):  1.293E-02 0.000E+00

     negative rho (up, down):  1.293E-02 0.000E+00
 BEEFens 2000 ensemble energies
             -0.600675203776192E+02
             -0.358084594532448E+01
             -0.157127187710309E+02
              0.425168199576282E+02
             -0.219280926375376E+02
             -0.203965604548744E+02
             -0.347709786607959E+02
             -0.855729669116450E+02
             -0.462386725707630E+02
             -0.469718729497982E+02
             -0.365784457706679E+02
              0.220299249453122E+01
              0.402937874315165E+01
              0.769602378450725E+01
              0.261126578364610E+01
              0.470655865653750E+02
             -0.207136104050944E+02
             -0.229798525759932E+02
              0.190653299330661E+02
             -0.111381349848650E+03
              0.530988225414340E+02
             -0.288292032067573E+02
             -0.327570265893743E+01
             -0.113377196422790E+02
             -0.889640616348515E+01
             -0.461802692141839E+01
              0.874885554279343E+02
             -0.184543804200239E+02
             -0.894141171168428E+01
             -0.513144258831188E+02
              0.809847460547703E+02
             -0.187324333738363E+02
             -0.371073190768637E+02
              0.247833634788087E+02
             -0.281259362740343E+01
              0.160945541996792E+02
             -0.490679791309896E+01
              0.108475197856438E+02
              0.284387721434808E+02
             -0.102390040838410E+03
              0.553356951833472E+02
              0.141310392101422E+02
             -0.157284304857802E+01
             -0.358891027864383E+02
              0.122124091151074E+02
             -0.144756282436095E+02
              0.393459935621637E+02
              0.361769277676209E+02
             -0.306795500225390E+02
             -0.272038005334789E+02
             -0.325455545191051E+02
             -0.348702906977783E+02
              0.133965323664775E+02
             -0.486047868343829E+02
              0.113886460857874E+02
              0.617510593366046E+02
              0.627980063784155E+02
              0.353021728938668E+02
              0.152751168982323E+02
              0.267292358182074E+02
[...]
             -0.698957340865275E+02
             -0.964778777563879E+00
             -0.248967215103242E+01
             -0.871850303089218E+01
             -0.183599413880626E+01
             -0.646941108695236E+02
             -0.210257426139125E+02
              0.524961229845994E+01
              0.883466252240669E+01
              0.464001208957824E+02
             -0.393596248448407E+02
              0.652997245975134E+02
             -0.421701880878478E+02
              0.207633533648410E+02
              0.346053474474571E+02

 BEEF-vdW xc energy contributions
           1 :   -776.298033382858
           2 :    713.822193790943
           3 :   -605.371244954941
           4 :    477.307323615267
           5 :   -356.702179708387
           6 :    263.249085200048
           7 :   -204.687768495968
           8 :    176.698535075926
           9 :   -166.830179240605
          10 :    160.574235992948
          11 :   -147.104660181368
          12 :    122.531095266320
          13 :   -89.8144549131762
          14 :    55.9287790213134
          15 :   -27.9040342500714
          16 :    9.55135525433923
          17 :  -0.156365749367069
          18 :   -4.59907165814889
          19 :    10.1854309301679
          20 :   -20.5296543184431
          21 :    36.3137532853713
          22 :   -54.9464288034967
          23 :    72.0525825306003
          24 :   -83.6613333144570
          25 :    88.0185689512057
          26 :   -86.2244408125345
          27 :    81.4957376538343
          28 :   -77.5071663142372
          29 :    76.6518328804058
          30 :   -79.0361285277605
          31 :   -84.8808941977946
          32 :   -65.1694683309133

     Writing output data file ./pwscf.save/

     General routines

     Parallel routines

   This run was terminated on:   0:51:26  27Sep2022

   JOB DONE.