     Program PWSCF v.6.7MaX starts on 20Dec2022 at 15:57:17

     Reading input from ooh-ensemble.in
Warning: card &CELL ignored
Warning: card / ignored

     Current dimensions of program PWSCF are:
     Max number of different atomic species (ntypx) = 10
     Max number of k-points (npk) =  40000
     Max angular momentum in pseudopotentials (lmaxx) =  3
     file Pt.pbe-n-kjpaw_psl.1.0.0.UPF: wavefunction(s)  6S 5D renormalized
     file O.pbe-nl-kjpaw_psl.1.0.0.UPF: wavefunction(s)  2S 2P renormalized
     file H.pbe-kjpaw_psl.1.0.0.UPF: wavefunction(s)  1S renormalized

     IMPORTANT: XC functional enforced from input :
     Exchange-correlation= BEEF-VDW
                           (   1   4  43  14   2   0   0)
     Any further DFT definition will be discarded
     Please, verify this is what you really want

     Subspace diagonalization in iterative solution of the eigenvalue problem:
     a serial algorithm will be used

     bravais-lattice index     =            0
     lattice parameter (alat)  =      16.0349  a.u.
     unit-cell volume          =   11419.1962 (a.u.)^3
     number of atoms/cell      =           39
     number of atomic types    =            3
     number of electrons       =       373.00
     number of Kohn-Sham states=          224
     kinetic-energy cutoff     =      60.0000  Ry
     charge density cutoff     =     240.0000  Ry
     scf convergence threshold =      1.0E-06
     mixing beta               =       0.7000
     number of iterations used =            8  local-TF  mixing
     Exchange-correlation= BEEF-VDW
                           (   1   4  43  14   2   0   0)

     celldm(1)=  16.034858  celldm(2)=   0.000000  celldm(3)=   0.000000
     celldm(4)=   0.000000  celldm(5)=   0.000000  celldm(6)=   0.000000

     crystal axes: (cart. coord. in units of alat)
               a(1) = (   1.000000   0.000000   0.000000 )
               a(2) = (   0.500000   0.866025   0.000000 )
               a(3) = (   0.000000   0.000000   3.198229 )

     reciprocal axes: (cart. coord. in units 2 pi/alat)
               b(1) = (  1.000000 -0.577350  0.000000 )
               b(2) = (  0.000000  1.154701  0.000000 )
               b(3) = (  0.000000  0.000000  0.312673 )

     PseudoPot. # 1 for Pt read from file:
     /users/bkreitz1/quantum-espresso/potentials/Pt.pbe-n-kjpaw_psl.1.0.0.UPF
     MD5 check sum: 04dc8a03c51ece93fc7b5889c2958091
     Pseudo is Projector augmented-wave + core cor, Zval = 10.0
     Generated using 'atomic' code by A. Dal Corso  v.6.7MaX
     Shape of augmentation charge: PSQ
     Using radial grid of 1277 points,  6 beta functions with:
                l(1) =   0
                l(2) =   0
                l(3) =   1
                l(4) =   1
                l(5) =   2
                l(6) =   2
     Q(r) pseudized with 0 coefficients

     PseudoPot. # 2 for O  read from file:
     /users/bkreitz1/quantum-espresso/potentials/O.pbe-nl-kjpaw_psl.1.0.0.UPF
     MD5 check sum: eef08af8b58d9ec80f8fdb78829eb7cf
     Pseudo is Projector augmented-wave + core cor, Zval =  6.0
     Generated using 'atomic' code by A. Dal Corso  v.6.7MaX
     Shape of augmentation charge: PSQ
     Using radial grid of 1095 points,  4 beta functions with:
                l(1) =   0
                l(2) =   0
                l(3) =   1
                l(4) =   1
     Q(r) pseudized with 0 coefficients

     PseudoPot. # 3 for H  read from file:
     /users/bkreitz1/quantum-espresso/potentials/H.pbe-kjpaw_psl.1.0.0.UPF
     MD5 check sum: ae98473e6dc62675f0d0baffdab24f65
     Pseudo is Projector augmented-wave, Zval =  1.0
     Generated using 'atomic' code by A. Dal Corso  v.6.7MaX
     Shape of augmentation charge: PSQ
     Using radial grid of  929 points,  2 beta functions with:
                l(1) =   0
                l(2) =   0
     Q(r) pseudized with 0 coefficients

     atomic species   valence    mass     pseudopotential
        Pt            10.00   195.08400     Pt( 1.00)
        O              6.00    15.99900     O ( 1.00)
        H              1.00     1.00800     H ( 1.00)

     No symmetry found

   Cartesian axes

     site n.     atom                  positions (alat units)
         1           Pt  tau(   1) = (   0.0000000   0.0000000   1.0017346  )
         2           Pt  tau(   2) = (   0.3333333   0.0000000   1.0017346  )
         3           Pt  tau(   3) = (   0.6666667   0.0000000   1.0017346  )
         4           Pt  tau(   4) = (   0.1666667   0.2886751   1.0017346  )
         5           Pt  tau(   5) = (   0.5000000   0.2886751   1.0017346  )
         6           Pt  tau(   6) = (   0.8333333   0.2886751   1.0017346  )
         7           Pt  tau(   7) = (   0.3333333   0.5773503   1.0017346  )
         8           Pt  tau(   8) = (   0.6666667   0.5773503   1.0017346  )
         9           Pt  tau(   9) = (   1.0000000   0.5773503   1.0017346  )
        10           Pt  tau(  10) = (   0.1666667   0.0962250   1.2739001  )
        11           Pt  tau(  11) = (   0.5000000   0.0962250   1.2739001  )
        12           Pt  tau(  12) = (   0.8333333   0.0962250   1.2739001  )
        13           Pt  tau(  13) = (   0.3333333   0.3849002   1.2739001  )
        14           Pt  tau(  14) = (   0.6666667   0.3849002   1.2739001  )
        15           Pt  tau(  15) = (   1.0000000   0.3849002   1.2739001  )
        16           Pt  tau(  16) = (   0.5000000   0.6735753   1.2739001  )
        17           Pt  tau(  17) = (   0.8333333   0.6735753   1.2739001  )
        18           Pt  tau(  18) = (   1.1666667   0.6735753   1.2739001  )
        19           Pt  tau(  19) = (   0.0006657   0.1924942   1.5414110  )
        20           Pt  tau(  20) = (   0.3327932   0.1921381   1.5417800  )
        21           Pt  tau(  21) = (   0.6665480   0.1919085   1.5414949  )
        22           Pt  tau(  22) = (   0.1669991   0.4803511   1.5457187  )
        23           Pt  tau(  23) = (   0.4994844   0.4812739   1.5415051  )
        24           Pt  tau(  24) = (   0.8341296   0.4815721   1.5414278  )
        25           Pt  tau(  25) = (   0.3355674   0.7710427   1.5477336  )
        26           Pt  tau(  26) = (   0.6670375   0.7703537   1.5414080  )
        27           Pt  tau(  27) = (   0.9996335   0.7703506   1.5455221  )
        28           Pt  tau(  28) = (  -0.0109026  -0.0062967   1.8154867  )
        29           Pt  tau(  29) = (   0.3438944  -0.0074163   1.8142617  )
        30           Pt  tau(  30) = (   0.6658913   0.0002430   1.8204588  )
        31           Pt  tau(  31) = (   0.1655160   0.3014271   1.8145348  )
        32           Pt  tau(  32) = (   0.5005527   0.2889932   1.8140928  )
        33           Pt  tau(  33) = (   0.8308272   0.2897474   1.8133286  )
        34           Pt  tau(  34) = (   0.3331715   0.5765457   1.8204635  )
        35           Pt  tau(  35) = (   0.6663402   0.5746963   1.8133581  )
        36           Pt  tau(  36) = (   0.9995670   0.5771068   1.8207720  )
        37           O   tau(  37) = (   0.1602379   0.0930608   1.9817527  )
        38           O   tau(  38) = (   0.1293388   0.0766004   2.1609138  )
        39           H   tau(  39) = (   0.2243740   0.1282139   2.2010201  )

     number of k points=    13  Marzari-Vanderbilt smearing, width (Ry)=  0.0200
                       cart. coord. in units 2pi/alat
        k(    1) = (   0.0000000   0.0000000   0.0000000), wk =   0.0800000
        k(    2) = (   0.0000000   0.2309401   0.0000000), wk =   0.1600000
        k(    3) = (   0.0000000   0.4618802   0.0000000), wk =   0.1600000
        k(    4) = (   0.2000000  -0.1154701   0.0000000), wk =   0.1600000
        k(    5) = (   0.2000000   0.1154701   0.0000000), wk =   0.1600000
        k(    6) = (   0.2000000   0.3464102   0.0000000), wk =   0.1600000
        k(    7) = (   0.2000000  -0.5773503   0.0000000), wk =   0.1600000
        k(    8) = (   0.2000000  -0.3464102   0.0000000), wk =   0.1600000
        k(    9) = (   0.4000000  -0.2309401   0.0000000), wk =   0.1600000
        k(   10) = (   0.4000000  -0.0000000   0.0000000), wk =   0.1600000
        k(   11) = (   0.4000000   0.2309401   0.0000000), wk =   0.1600000
        k(   12) = (   0.4000000  -0.6928203   0.0000000), wk =   0.1600000
        k(   13) = (   0.4000000  -0.4618802   0.0000000), wk =   0.1600000

     Initial potential from superposition of free atoms

     starting charge  372.99388, renormalised to  373.00000

     negative rho (up, down):  1.280E-02 0.000E+00

     %%%%%%%%%%%%%%%%%%%%%%%%%%%%%%%%%%%%%%%%%%%%%%%%%%%%%%%%%%%%%%%%%%%%%%%%
     %                                                                      %
     % You are using vdW-DF, which was implemented by the Thonhauser group. %
     % Please cite the following two papers that made this development      %
     % possible and the two reviews that describe the various versions:     %
     %                                                                      %
     %   T. Thonhauser et al., PRL 115, 136402 (2015).                      %
     %   T. Thonhauser et al., PRB 76, 125112 (2007).                       %
     %   K. Berland et al., Rep. Prog. Phys. 78, 066501 (2015).             %
     %   D.C. Langreth et al., J. Phys.: Condens. Matter 21, 084203 (2009). %
     %                                                                      %
     %                                                                      %
     % If you are calculating the stress with vdW-DF, please also cite:     %
     %                                                                      %
     %   R. Sabatini et al., J. Phys.: Condens. Matter 24, 424209 (2012).   %
     %                                                                      %
     %%%%%%%%%%%%%%%%%%%%%%%%%%%%%%%%%%%%%%%%%%%%%%%%%%%%%%%%%%%%%%%%%%%%%%%%

     Starting wfcs are  333 randomized atomic wfcs
     Checking if some PAW data can be deallocated...

     Self-consistent Calculation

     iteration #  1     ecut=    60.00 Ry     beta= 0.70
     Davidson diagonalization with overlap
     ethr =  1.00E-02,  avg # of iterations =  2.0

     Threshold (ethr) on eigenvalues was too large:
     Diagonalizing with lowered threshold

     Davidson diagonalization with overlap
     ethr =  8.61E-04,  avg # of iterations =  2.6

[...]

     total energy              =  -27839.71122705 Ry
     estimated scf accuracy    <       3.31440170 Ry

[...]

     iteration #  4     ecut=    60.00 Ry     beta= 0.70
     Davidson diagonalization with overlap
     c_bands:  3 eigenvalues not converged
     c_bands:  1 eigenvalues not converged
     c_bands:  3 eigenvalues not converged
     ethr =  5.04E-05,  avg # of iterations = 14.8

[...]

     iteration #  6     ecut=    60.00 Ry     beta= 0.70
     Davidson diagonalization with overlap
     c_bands:  1 eigenvalues not converged
     c_bands:  1 eigenvalues not converged
     c_bands:  1 eigenvalues not converged
     c_bands:  1 eigenvalues not converged
     c_bands:  1 eigenvalues not converged
     c_bands:  1 eigenvalues not converged
     ethr =  5.24E-06,  avg # of iterations = 15.2

[...]

     total energy              =  -27840.23871828 Ry
     estimated scf accuracy    <       0.00000176 Ry

     iteration # 17     ecut=    60.00 Ry     beta= 0.70
     Davidson diagonalization with overlap
     ethr =  4.71E-10,  avg # of iterations =  2.3

[...]

     End of self-consistent calculation

          k = 0.0000 0.0000 0.0000 ( 89695 PWs)   bands (ev):

   -20.2170 -15.8164  -7.1523  -6.4382  -5.7777  -4.9411  -4.7722  -4.7441
    -4.7185  -4.7154  -4.7130  -4.7039  -4.6928  -4.5024  -4.3402  -4.1791
    -4.1782  -4.1653  -4.1472  -4.0961  -3.9893  -3.7607  -3.7141  -3.7064
    -3.6758  -3.6287  -3.5713  -3.4999  -3.4916  -3.4882  -3.4599  -3.4054
    -3.3761  -3.3168  -3.2721  -3.2667  -3.2565  -3.2424  -3.2395  -3.2307
    -3.2043  -3.1982  -3.1926  -3.0977  -3.0825  -2.7046  -2.6865  -2.6344
    -2.6178  -2.6021  -2.5826  -2.5792  -2.5678  -2.5298  -2.4633  -2.4308
    -2.3905  -2.3516  -2.3058  -2.2287  -1.8628  -1.8516  -1.8330  -1.8076
    -1.8035  -1.7488  -1.7233  -1.6630  -1.6613  -1.6299  -1.6293  -1.6083
    -1.5971  -1.5862  -1.5854  -1.5767  -1.5559  -1.5386  -1.5348  -1.5227
    -1.5215  -1.5089  -1.4063  -1.4059  -1.4030  -1.3764  -1.3719  -1.3611
    -1.2383  -1.2269  -1.2126  -1.2087  -1.2059  -1.1978  -1.1653  -1.1219
    -1.0490  -1.0413  -1.0403  -0.9746  -0.9451  -0.9342  -0.9155  -0.8980
    -0.8979  -0.8219  -0.7885  -0.7813  -0.7658  -0.7627  -0.7329  -0.7288
    -0.6262  -0.4144  -0.3148  -0.3123  -0.2954  -0.2679  -0.2616  -0.2572
    -0.2297  -0.2261  -0.1448  -0.1139  -0.1021  -0.1002  -0.0691  -0.0434
     0.0132   0.0153   0.0819   0.0911   0.1474   0.2131   0.2151   0.2239
     0.2289   0.2411   0.2791   0.4209   0.4795   0.4860   0.4865   0.4910
     0.5321   0.5423   0.5543   0.5952   0.6700   0.6772   0.6810   0.7457
     0.7538   0.7591   0.7750   0.8710   0.8795   0.9153   0.9178   0.9329
     0.9434   0.9466   0.9677   0.9734   0.9799   0.9829   1.0773   1.0799
     1.0841   1.0875   1.0922   1.1395   1.1493   1.1685   1.1718   1.1811
     1.1854   1.2284   1.2335   1.2351   1.3032   1.3042   1.3049   1.3190
     1.3384   1.3390   1.3895   1.3943   1.4189   1.4232   1.4409   1.4477
     1.4927   1.5055   1.6684   1.6694   1.7283   1.7598   1.7672   1.7685
     1.7746   1.8448   1.8552   2.6042   2.6442   2.6481   2.6516   2.8560
     2.8756   3.1256   4.6482   4.9839   4.9886   4.9895   5.1041   5.1349
     5.5326   6.3336   6.5488   6.5507   6.5605   6.5968   6.5997   6.6436

[...]

          k = 0.4000-0.4619 0.0000 ( 89636 PWs)   bands (ev):

   -20.2169 -15.8162  -6.4586  -6.1775  -6.1222  -5.5676  -5.0204  -4.9204
    -4.6908  -4.4319  -4.3710  -4.2909  -4.2410  -4.1457  -4.1149  -4.0798
    -4.0144  -3.9892  -3.9072  -3.8749  -3.8546  -3.8483  -3.8409  -3.7861
    -3.7464  -3.6848  -3.6686  -3.6587  -3.6401  -3.6343  -3.4965  -3.4379
    -3.3964  -3.3257  -3.3176  -3.2925  -3.2691  -3.2322  -3.1947  -3.1436
    -3.0870  -3.0310  -3.0159  -2.8696  -2.8457  -2.7987  -2.7467  -2.7051
    -2.6557  -2.6258  -2.5689  -2.5163  -2.4940  -2.4333  -2.4103  -2.4049
    -2.3712  -2.3294  -2.3160  -2.2450  -2.2354  -2.2185  -2.2013  -2.1908
    -2.1704  -2.1342  -2.1155  -2.0828  -1.9885  -1.9598  -1.9119  -1.9051
    -1.8277  -1.7667  -1.7497  -1.7410  -1.7129  -1.7013  -1.6552  -1.6339
    -1.5966  -1.5623  -1.5144  -1.4832  -1.4766  -1.4560  -1.3809  -1.3477
    -1.3240  -1.3171  -1.3022  -1.2580  -1.2183  -1.1792  -1.1434  -1.1144
    -1.0972  -1.0814  -1.0523  -1.0453  -1.0312  -1.0135  -0.9790  -0.9688
    -0.9425  -0.9319  -0.9159  -0.9001  -0.8908  -0.8692  -0.8428  -0.8232
    -0.8006  -0.7403  -0.6938  -0.5949  -0.5642  -0.5010  -0.4876  -0.4275
    -0.3969  -0.3454  -0.3363  -0.2975  -0.2806  -0.2593  -0.2519  -0.2174
    -0.1766  -0.1623  -0.1328  -0.0849  -0.0273  -0.0066   0.0079   0.0444
     0.0777   0.1410   0.2175   0.2562   0.2661   0.3216   0.3400   0.3667
     0.3939   0.4200   0.4386   0.4549   0.4659   0.5286   0.5682   0.5819
     0.6011   0.6529   0.6639   0.6849   0.7234   0.7720   0.8007   0.8659
     0.8859   0.9678   1.0086   1.0653   1.1271   1.1375   1.1860   1.2126
     1.2437   1.2601   1.3139   1.3923   1.4173   1.4319   1.4730   1.4796
     1.4986   1.5290   1.5539   1.5885   1.6061   1.6397   1.6519   1.6856
     1.7060   1.7168   1.7637   1.7932   1.8637   1.8902   1.9076   1.9162
     1.9527   1.9830   2.0062   2.1036   2.2154   2.2928   3.0571   3.0610
     3.3125   3.3270   3.4079   3.4642   3.5150   3.5649   3.9936   4.0391
     4.0810   4.2690   4.5456   4.5765   4.6615   4.7269   4.8429   4.9522
     5.0790   5.1543   5.2496   5.4617   5.5807   5.8876   6.0839   6.1687

     the Fermi energy is     1.6916 ev

!    total energy              =  -27840.23871695 Ry

     total all-electron energy =  -1326944.697924 Ry
     estimated scf accuracy    <       0.00000077 Ry
     smearing contrib. (-TS)   =       0.00218691 Ry
     internal energy E=F+TS    =  -27840.24090385 Ry

     The total energy is F=E-TS. E is the sum of the following terms:
     one-electron contribution =  -27614.57903949 Ry
     hartree contribution      =   14109.46173394 Ry
     xc contribution           =    -906.07440695 Ry
     ewald contribution        =   12065.23635697 Ry
     one-center paw contrib.   =  -25494.28554832 Ry

     convergence has been achieved in  17 iterations

[...]

     Forces acting on atoms (cartesian axes, Ry/au):

     atom    1 type  1   force =    -0.00065081   -0.00034378   -0.00308699
     atom    2 type  1   force =     0.00059525   -0.00031263   -0.00306070
     atom    3 type  1   force =     0.00005422   -0.00005037   -0.00498157
     atom    4 type  1   force =     0.00000064    0.00068666   -0.00303772
     atom    5 type  1   force =     0.00091388    0.00050710   -0.00377737
     atom    6 type  1   force =    -0.00094785    0.00066543   -0.00407904
     atom    7 type  1   force =    -0.00012169    0.00010253   -0.00488746
     atom    8 type  1   force =     0.00012360   -0.00116438   -0.00406901
     atom    9 type  1   force =    -0.00072033   -0.00043815   -0.00589471
     atom   10 type  1   force =     0.00038444    0.00025348    0.00080967
     atom   11 type  1   force =     0.00100953   -0.00139973    0.00198260
     atom   12 type  1   force =    -0.00108837   -0.00235153    0.00242461
     atom   13 type  1   force =    -0.00077741    0.00159072    0.00210754
     atom   14 type  1   force =     0.00013092    0.00005073   -0.00031705
     atom   15 type  1   force =     0.00117853    0.00220022    0.00132821
     atom   16 type  1   force =    -0.00258017    0.00020707    0.00244579
     atom   17 type  1   force =     0.00244951   -0.00014880    0.00123835
     atom   18 type  1   force =     0.00112265    0.00056230    0.02193885
     atom   19 type  1   force =    -0.00011743   -0.00016441    0.00016735
     atom   20 type  1   force =    -0.00009269   -0.00009257    0.00011563
     atom   21 type  1   force =     0.00002592   -0.00012594    0.00024836
     atom   22 type  1   force =    -0.00009876    0.00016763   -0.00004313
     atom   23 type  1   force =    -0.00006377    0.00006707    0.00024778
     atom   24 type  1   force =    -0.00008446   -0.00005046    0.00022393
     atom   25 type  1   force =    -0.00012823   -0.00005454    0.00013261
     atom   26 type  1   force =    -0.00016913   -0.00002135    0.00014859
     atom   27 type  1   force =     0.00009987   -0.00014328   -0.00005755
     atom   28 type  1   force =     0.00004153    0.00002030   -0.00008172
     atom   29 type  1   force =    -0.00039794    0.00019055    0.00009669
     atom   30 type  1   force =     0.00026837   -0.00001466    0.00042463
     atom   31 type  1   force =    -0.00003185   -0.00045914    0.00010302
     atom   32 type  1   force =    -0.00015886   -0.00010325    0.00006455
     atom   33 type  1   force =     0.00003021   -0.00025986    0.00019906
     atom   34 type  1   force =     0.00011230    0.00024156    0.00044045
     atom   35 type  1   force =    -0.00019621    0.00013413    0.00019331
     atom   36 type  1   force =    -0.00026314   -0.00016588    0.00052046
     atom   37 type  2   force =     0.00077905    0.00044203    0.00038504
     atom   38 type  2   force =     0.00406612    0.00231512    0.00306986
     atom   39 type  3   force =    -0.00469744   -0.00253995   -0.00368293

     Total force =     0.008740     Total SCF correction =     0.002167
     SCF correction compared to forces is large: reduce conv_thr to get better values

[...]

     negative rho (up, down):  1.351E-02 0.000E+00

     negative rho (up, down):  1.351E-02 0.000E+00
 BEEFens 2000 ensemble energies
             -0.606242839343963E+02
             -0.360670264162937E+01
             -0.158361908064040E+02
              0.428963253914976E+02
             -0.221056476018841E+02
             -0.205430353878929E+02
             -0.351837659168951E+02
             -0.864184731564084E+02
             -0.465711466546744E+02
             -0.473065395659057E+02
             -0.368867844513179E+02
              0.225501866375592E+01
              0.406321814597641E+01
              0.766360559247425E+01
              0.265180217939687E+01
              0.474655118441126E+02
             -0.208980293323156E+02
             -0.230888991395158E+02
              0.192441611116353E+02
             -0.112349823507165E+03
              0.535944056045751E+02
             -0.289860754250757E+02
             -0.332681020184015E+01
             -0.114186785166607E+02
             -0.888332897575299E+01
             -0.468321858983080E+01
              0.882548405997912E+02
             -0.186259940718820E+02
             -0.903331258011599E+01
             -0.517976927144624E+02
              0.815951100449099E+02
             -0.187971422518573E+02
             -0.374670890492213E+02
              0.249632928539036E+02
             -0.283515397186420E+01
              0.163204692732654E+02
             -0.488955815009354E+01
              0.108584083337585E+02
              0.287279009555200E+02
             -0.103276546240775E+03
              0.558074049089286E+02
              0.142343913769975E+02
             -0.166141063194794E+01
             -0.361740038939175E+02
              0.123051354029071E+02
             -0.146230643738182E+02
              0.397737685001442E+02
              0.364869062056664E+02
             -0.308526386645989E+02
             -0.274787605928682E+02
             -0.327885161813381E+02
             -0.351845147292177E+02
              0.135579951574138E+02
             -0.490710082482482E+02
              0.115304475323343E+02
              0.622910011690660E+02
              0.634391886871014E+02
              0.355805256239202E+02
              0.154390277693051E+02
              0.270022589209196E+02
[...]
             -0.705432967993737E+02
             -0.942613636871101E+00
             -0.246562164610154E+01
             -0.881383043442565E+01
             -0.179885267479000E+01
             -0.652598969788889E+02
             -0.211273939783223E+02
              0.535781002004145E+01
              0.893863165023015E+01
              0.468255916251715E+02
             -0.397172001111324E+02
              0.657860386600734E+02
             -0.425054220312739E+02
              0.209850639509975E+02
              0.349832050674429E+02

 BEEF-vdW xc energy contributions
           1 :   -782.608840422865
           2 :    719.186699545612
           3 :   -609.321054069872
           4 :    479.871403481035
           5 :   -358.154085607630
           6 :    263.905692589505
           7 :   -204.825618207507
           8 :    176.537956032322
           9 :   -166.534356175259
          10 :    160.248016005744
          11 :   -146.803209649439
          12 :    122.276111761740
          13 :   -89.6073506492886
          14 :    55.7594684456776
          15 :   -27.7601615115982
          16 :    9.43251184299334
          17 :  -7.912088941191087E-002
          18 :   -4.61464838268705
          19 :    10.1344292242394
          20 :   -20.4308095093214
          21 :    36.2032797282582
          22 :   -54.8600859741009
          23 :    72.0054967922226
          24 :   -83.6395558641923
          25 :    87.9882688390547
          26 :   -86.1525392802749
          27 :    81.3720357060283
          28 :   -77.3579214648200
          29 :    76.5322314740115
          30 :   -79.0050819616130
          31 :   -85.6320903812741
          32 :   -65.6491928095566

     Writing output data file ./pwscf.save/

     General routines

     Parallel routines

   This run was terminated on:  19:15:59  20Dec2022

   JOB DONE.